<?xml version="1.0"?> 
<VTKFile type="UnstructuredGrid" version="0.1"> 
<UnstructuredGrid> 
<Piece NumberOfPoints="1280" NumberOfCells="720"> 
<PointData Vectors="fields">
<DataArray type="Float32" Name="stress" format="ascii" NumberOfComponents="3"> 
26244.3 -6248.67 -2743.73 27426.6 -7432.19 -2942.48 26589 -6593.85 -2801.78 27055.4 -7061.19 -2880.22 26473.3 -6476.92 -202.028 27671.7 -7677.16 -216.596 26822.7 -6826.86 -206.306 27295.4 -7300.81 -212.082 26354.7 -6360.34 -1971.43 27544.7 -7552.28 -2114.45 26701.8 -6707.81 -2013.17 27171.3 -7178.47 -2069.61 26444.7 -6450.22 -966.972 27640.9 -7648.99 -1037.36 26793.6 -6799.54 -987.486 27265.6 -7272.9 -1015.27 -577.599 20566.4 -11079.6 -2137.27 22128.3 -12718.2 -1021.43 21003.6 -11541.6 -1637.99 21618.1 -12187.9 9126.8 10879 -15286.8 8994.26 11006.8 -17548.8 9092.25 10916.2 -15921.7 9038.52 10965.1 -16813.9 1970.95 18025.3 -13043.1 785.264 19209.6 -14974.1 1635.45 18357.5 -13586.7 1166.46 18823.2 -14348.4 5875.43 14129.2 -14747.6 5263.59 14736.9 -16931 5704.96 14300.8 -15361.1 5462.28 14539 -16222.3 897.496 19106.6 -9544.84 -351.645 20344 -10844.7 548.423 19458.3 -9910.94 54.5974 19945.4 -10423.6 9243.35 10756.5 -13171.2 9142.33 10858.6 -14964.9 9213.64 10784.8 -13678.8 9172.77 10824.1 -14386.3 3088.23 16914.8 -11236 2140.92 17855.6 -12767 2822.34 17182 -11667.8 2447.57 17552.2 -12271.7 6445.1 13556.5 -12705.3 5960.42 14040.7 -14436.4 6307.69 13693.5 -13194.6 6115.42 13883.5 -13877.5 -12243.4 32117.2 -23240 -17184.6 37107.4 -28495.3 -13615.2 33452.1 -24677.2 -15570.5 35407.1 -26748.9 8190.89 11866.3 -32056.8 7714.53 12345.9 -39250.9 8079.72 11995.7 -34005.4 7881.09 12174.3 -36839.2 -6921.33 26755.8 -27391.7 -10827.2 30323 -33573.9 -7981.39 27729.5 -29080.6 -9527.72 29126.5 -31518.1 1315.19 18625.3 -30953.7 -799.037 20424.6 -37894.4 764.814 19124.7 -32842.6 -76.3936 19825.4 -35578.2 -7937.83 27930.5 -18769.8 -11559.2 31453.7 -22525 -8913.21 28909.8 -19789.8 -10346.9 30291.5 -21269.5 8521.03 11480.5 -25931.3 8231.35 11794.6 -31091.7 8435.88 11561.6 -27352.2 8315.82 11680.3 -29386.3 -3631.91 23615.7 -22118 -6401.57 26264.4 -26552.1 -4380.62 24358.9 -23327.1 -5478.24 25398 -25074.7 2995.79 16998.9 -25020.8 1573.6 18367.4 -30016.3 2605.96 17381 -26392.3 2039.55 17916.2 -28361.5 22067.8 -2065.01 -2037.96 22818.3 -2816.77 -2164.65 22287.7 -2285.43 -2075.13 22583.9 -2582.27 -2125.13 22238 -2234.65 -150.378 22999 -2997.33 -159.846 22461 -2458.16 -153.169 22761.3 -2759.32 -156.919 22150.6 -2147.92 -1464.01 22906 -2905.14 -1555.05 22372 -2369.83 -1490.7 22670.1 -2668.83 -1526.63 22217.5 -2214.52 -718.06 22977 -2976.21 -762.859 22440.2 -2437.64 -731.179 22739.9 -2738.4 -748.862 45239.6 -25231.7 -5953.54 49187.3 -29183.2 -6548.04 46358.5 -26358.1 -6135.81 47911.5 -27919.1 -6372.5 45732.9 -25721.3 -432.001 49546.5 -29799.1 -621.686 46853.9 -26864.3 -457.483 48364.9 -28473 -524.482 45466.3 -25466.2 -4289.69 49431.5 -29319.7 -4664.24 46591.8 -26581 -4413.92 48152.8 -28103.2 -4563.78 45661.5 -25652.7 -2108.32 49591.7 -29478.1 -2319.83 46790.6 -26761.9 -2170.67 48342 -28272.3 -2252.29 10705.4 9295.96 -12213.5 10748.3 9250.31 -12975.4 10717.8 9282.32 -12436.9 10734.6 9264.21 -12737.7 18440.6 1559.14 -8856.23 18967.1 1035.07 -9407.43 18594.8 1405.23 -9017.94 18802.6 1198.27 -9235.51 13299 6700.92 -11779.9 13504.4 6494.59 -12514.1 13359 6640.1 -11995.2 13440 6558.56 -12285.1 16409.7 3589.7 -10419.8 16809.9 3191.69 -11068.3 16526.7 3472.6 -10610.1 16684.6 3315.4 -10866.1 10658.5 9343.05 -11410.8 10698.9 9303.07 -12096.9 10670.9 9331.88 -11611.8 10686.8 9316.01 -11882.6 17886.4 2113.32 -8273.78 18360.2 1639.46 -8771.81 18025.4 1974.41 -8419.93 18212.4 1787.28 -8616.52 13081.9 6918.17 -11005.6 13267.7 6732.68 -11667.4 13136.9 6864.27 -11199.6 13210.1 6790.97 -11460.8 15988.7 4010.81 -9734.69 16348.6 3650.87 -10320.4 16094.5 3905.51 -9906.46 16236.5 3763.35 -10137.7 10954.5 9049.74 -16447.2 11020.3 8979.59 -17646.7 10973.3 9028.63 -16797.2 10999.1 9000.74 -17270.6 21365.3 -1361.4 -11926.2 22194.8 -2187.66 -12793.1 21606.8 -1602.83 -12179.3 21934 -1929.17 -12521.5 14446.1 5556.61 -15861.1 14768.8 5233.33 -17016.4 14539.6 5461.48 -16198.2 14666.8 5333.68 -16654.3 18632.4 1371.58 -14029.5 19263.3 744.838 -15049.5 18815.7 1187.92 -14327.3 19064.4 940.332 -14729.9 10881.6 9121.74 -15203.3 10944.6 9060.75 -16265.1 10901.4 9104.98 -15512.6 10926 9080.74 -15931.7 20506.4 -501.626 -11023.6 21239.6 -1235.87 -11794.5 20720.5 -715.614 -11248.7 21009.7 -1005.59 -11553 14110.1 5893.05 -14662 14397.4 5606.17 -15685.6 14194.9 5810.28 -14960.3 14308.2 5696.87 -15364.4 17980.7 2024.87 -12968.4 18537.2 1467.19 -13874.5 18143.5 1862.77 -13232.8 18363 1642.48 -13590.4 33039.9 -13049.9 -3886.35 35058.1 -15064.1 -4224.64 33623.9 -13633.5 -3984.24 34419.9 -14428.9 -4117.7 33366.1 -13371 -285.551 35416.5 -15418 -310.06 33959.2 -13963.4 -292.881 34767.9 -14771.8 -302.666 33192.4 -13207.3 -2793.79 35222.3 -15238.3 -3038.61 33780.2 -13795.1 -2864.5 34580.8 -14597.2 -2961.05 33320.5 -13334.2 -1371.03 35362.5 -15379.9 -1492.2 33911.8 -13925.7 -1406.03 34717.2 -14733.5 -1453.85 11364.6 8648.56 -23334 11478.8 8522.46 -25385.5 11396.6 8610.58 -23928.4 11441.2 8560.31 -24738 26123 -6112.22 -16919.3 27541.5 -7516.7 -18397.3 26532.7 -6520.2 -17347.9 27092.1 -7075.01 -17931.2 16320.5 3697.19 -22497.8 16875.8 3140.97 -24469.9 16479.7 3534.3 -23069.5 16698.3 3314.29 -23847.7 22255 -2234.04 -19898.6 23337.2 -3299.86 -21636.3 22566.4 -2544.82 -20402.7 22993 -2965.96 -21088.5 11239.9 8773.42 -21253.7 11347.8 8668.26 -23026.4 11274.3 8745.56 -21766 11316.5 8703.65 -22465.7 24687.5 -4677.73 -15410.5 25910.9 -5901.06 -16697.2 25042.3 -5031.87 -15783.8 25524.7 -5515.07 -16291.6 15755.8 4262.58 -20493.9 16238.2 3781.66 -22201.8 15897.9 4125.59 -20988 16087.8 3935.38 -21662 21163.9 -1143.47 -18126.1 22094.1 -2072.91 -19637.4 21434.3 -1411.49 -18564.1 21801 -1778.7 -19160.6 12129.3 8047.36 -35655.9 12377.5 7935.78 -39593.2 12194.1 8005.9 -36784.1 12290.2 7960.18 -38337.5 34621.2 -14730.2 -25834.2 37303.7 -17545.1 -28618.3 35391.3 -15538.5 -26636.9 36449.2 -16650.3 -27735.8 19770.4 477.524 -34379 20956 -462.084 -38191.3 20098.4 197.046 -35470.4 20564.1 -175.59 -36974.3 28814.8 -8723.14 -30397.8 30986.8 -10805.2 -33733.3 29427.7 -9326.35 -31355.4 30283.2 -10149.5 -32671.4 11887.9 8201.59 -31793.3 12096.6 8070.52 -35076 11955.4 8167.14 -32731.6 12036.3 8114.07 -34026.8 31965.3 -11976.4 -23045.3 34224.4 -14315.2 -25420.1 32614.8 -12640.8 -23729.5 33505.5 -13564.5 -24666.8 18665.7 1456.8 -30645 19604.1 623.969 -33818.3 18937 1221.4 -31552.1 19305.6 891.274 -32804 26740.3 -6662.15 -27099.3 28501.7 -8412.28 -29904.9 27244.6 -7157.51 -27904.2 27938.2 -7849.37 -29011.2 23923.3 -3923.87 -2351.55 24857.1 -4859.77 -2509.54 24196.3 -4197.57 -2397.78 24564.7 -4567.12 -2460.13 24120.7 -4120.05 -173.192 25067.5 -5068.8 -184.96 24397.6 -4397.43 -176.599 24771.2 -4772.06 -181.267 24018 -4019.92 -1689.48 24957.9 -4962.03 -1802.99 24292.7 -4295.31 -1722.68 24663.6 -4667.32 -1767.48 24095.5 -4097.17 -828.735 25040.6 -5044.29 -884.375 24371.8 -4373.93 -844.987 24744.7 -4747.91 -866.951 20552.4 -549.351 -9380.16 21259.9 -1257.65 -10010.9 20759.3 -756.449 -9564.52 21038.4 -1036.17 -9813.5 23046 -3049.58 -5402.16 23921.6 -3926.83 -5764.45 23302.1 -3305.81 -5508.08 23647.6 -3652.22 -5651.08 21456 -1456.68 -8251.97 22224.4 -2226.11 -8806.72 21680.7 -1681.48 -8414.08 21983.8 -1985.33 -8633.05 22442.1 -2446.46 -6673.35 23277 -3282.82 -7121.43 22686.2 -2690.69 -6804.3 23015.6 -3020.97 -6981.16 19811.1 191.244 -8720.49 20444.6 -441.591 -9284.13 19996.7 6.27573 -8885.37 20246.6 -243.633 -9107.86 22129.3 -2130.8 -5022.04 22912.4 -2916.29 -5347 22358.4 -2360.99 -5117.34 22667.4 -2671.16 -5245.6 20651.6 -651.569 -7671.32 21338.9 -1339.74 -8167.54 20852.9 -853.026 -7816.61 21124 -1124.78 -8012.48 21568.4 -1570.59 -6203.59 22314.7 -2319.43 -6605.15 21786.8 -1790.08 -6321.31 22081.3 -2085.78 -6479.82 22311.8 -2309.37 -10947.4 23209.4 -3205.38 -11743.8 22573.4 -2570.83 -11179.8 22927.5 -2924.7 -11494.1 25221.6 -5228.8 -6302.51 26328.5 -6340.39 -6762.65 25544.6 -5552.32 -6436.43 25981.2 -5991.28 -6618.06 23366.8 -3368.3 -9630.61 24339.9 -4342.73 -10332.4 23650.8 -3652.18 -9835.2 24034.7 -4037 -10112.2 24517.6 -4524.12 -7787.11 25573.2 -5584.21 -8355.74 24825.8 -4832.58 -7952.67 25242.2 -5251.2 -8177.1 21380.8 -1378.18 -10118.6 22175.6 -2173.53 -10826.5 21612.8 -1610.18 -10325.3 21926.4 -1924.27 -10604.8 24071 -4076.42 -5826.23 25053.5 -5060.93 -6232.96 24357.9 -4364.01 -5944.96 24745.5 -4752.78 -6105.5 22355.6 -2357.21 -8901.4 23219 -3220.93 -9524.23 22607.7 -2609.38 -9083.31 22948.3 -2950.45 -9329.15 23419.5 -3425.46 -7197.89 24357.1 -4364.1 -7701.11 23693.3 -3699.68 -7344.82 24063.2 -4070.34 -7543.45 20561.2 -554.216 -1782.84 21172.9 -1167.97 -1886.45 20740.8 -734.493 -1813.26 20982.2 -976.836 -1854.16 20710.5 -702.699 -131.562 21330.8 -1325.11 -139.181 20892.7 -885.519 -133.778 21137.4 -1131.28 -136.794 20633.3 -627.053 -1280.8 21249.4 -1244.85 -1355.22 20814.3 -808.469 -1302.66 21057.4 -1052.41 -1332.04 20692 -685.49 -628.228 21311.5 -1306.6 -664.728 20874 -867.85 -638.954 21118.4 -1113.09 -653.363 18000.7 1999.42 -7109.94 18465.1 1534.73 -7523.72 18137.1 1862.92 -7231.47 18320.4 1679.41 -7394.8 19894.8 109.635 -4093.44 20468.1 -464.898 -4331.74 20063.2 -58.9789 -4163.45 20289.4 -285.838 -4257.52 18687.3 1313.37 -6253.88 19191.3 808.901 -6617.92 18835.4 1165.27 -6360.81 19034.2 966.067 -6504.51 19436.4 565.65 -5056.65 19983.5 17.7955 -5351.05 19597.1 404.886 -5143.14 19813 188.556 -5259.35 17507.1 2492.06 -6670.95 17929.3 2070.69 -7046.45 17631.4 2368.35 -6781.31 17798 2201.95 -6929.54 19287.3 719.151 -3839.93 19806.8 197.638 -4056.85 19439.9 565.76 -3903.8 19644.9 359.839 -3989.43 18152.1 1848.35 -5867.13 18609.9 1390.67 -6198.01 18286.8 1713.83 -5964.47 18467.4 1533.11 -6095.09 18856.3 1146.83 -4743.34 19352.4 649.545 -5011.45 19002.1 1000.55 -4822.3 19197.8 804.19 -4928.13 19144.2 855.855 -8128.4 19714.1 287.496 -8634.57 19311.2 689.117 -8276.84 19536.1 464.669 -8476.63 21306.9 -1305.02 -4679.88 22009.8 -2010.81 -4972.29 21513 -1511.56 -4765.49 21790.3 -1790.25 -4880.92 19928.6 71.6721 -7149.83 20546.6 -546.633 -7595.58 20109.8 -109.463 -7280.46 20353.7 -353.626 -7456.4 20784 -783.22 -5781.12 21454.5 -1456.17 -6142.16 20980.7 -980.13 -5886.83 21245.3 -1245.86 -6029.34 18543.7 1456.19 -7593.78 19057 942.824 -8050.92 18694.3 1305.63 -7727.95 18896.9 1102.9 -7908.4 20565.3 -562.164 -4372.07 21199.3 -1197.43 -4635.25 20751.3 -748.572 -4449.29 21001.5 -999.417 -4553.17 19276.7 723.558 -6679.55 19834 166.075 -7081.67 19440.2 559.985 -6797.57 19660.1 339.848 -6956.31 20076.3 -74.9608 -5400.87 20681.3 -680.664 -5726 20253.8 -252.716 -5496.29 20492.5 -491.889 -5624.63 38162.9 -18162.5 -4750.83 40915.2 -20911.1 -5220.81 38954.6 -18954.4 -4885.9 40039.7 -20040 -5071.28 38575.3 -18564.2 -342.523 41370.9 -21352.6 -374.804 39381.1 -19366.9 -351.747 40483.8 -20468 -364.681 38342.9 -18360.3 -3422.27 41112.9 -21128.6 -3763.3 39139.5 -19157.1 -3520.54 40231.5 -20250.5 -3655.03 38504.1 -18522.1 -1680.89 41291.2 -21306.1 -1848.22 39306.3 -19322.7 -1729.29 40405.3 -20422.2 -1795.35 31339.1 -11342.6 -18985.3 33403.3 -13450.3 -20839.4 31934.4 -11948.6 -19519.3 32748.2 -12781.2 -20251 36382 -16446.1 -10926.6 38948.7 -19016.6 -11988 37122.5 -17186 -11231.9 38134.6 -18201.2 -11650.8 33150 -13197.6 -16712.5 35386.8 -15476.5 -18342.5 33795.4 -13852.4 -17182 34677.4 -14752.5 -17825.3 35141.9 -15224 -13516.3 37578.1 -17683.1 -14831.6 35844.9 -15931 -13895.1 36805.4 -16902.3 -14414.2 29259.6 -9248.97 -17128.4 31031.2 -11031.1 -18709.8 29772.8 -9760.74 -17584.3 30471.2 -10464.6 -18208.5 33804.8 -13856.8 -9860.63 35999.1 -16065.2 -10769.3 34437.9 -14496.9 -10123.9 35303.3 -15369 -10482.5 30899.1 -10923 -15075.7 32816.1 -12861.1 -16470.3 31453.5 -11482.1 -15478.6 32209.3 -12247.5 -16029 32694.8 -12752.3 -12192.6 34778.3 -14860.2 -13320.9 33296.3 -13363.2 -12519.4 34117.9 -14195.7 -12964.7 36613 -16785.9 -23717 39443.9 -19816.1 -26255 37431.8 -17654.7 -24449.9 38548.7 -18851.3 -25451.8 42956.3 -22985.7 -13669.8 46571.9 -26512.9 -15257.9 43991.2 -23998 -14114.5 45415.9 -25391.7 -14740.4 38854.8 -19048.6 -20874.8 41886.7 -22257 -23117.5 39735 -19969.9 -21521.1 40931.5 -21236.7 -22406.4 41363.6 -21489.7 -16892.7 44710 -24860.2 -18768.1 42330.3 -22459.8 -17426.8 43650.1 -23791.1 -18166.6 33764.3 -13817.9 -21163 36189.4 -16340 -23338.6 34463.3 -14536.7 -21790.6 35419.9 -15532.6 -22649.4 39397.2 -19464.3 -12173.7 42423.2 -22466.3 -13444 40266.2 -20332.2 -12535.8 41458.9 -21518 -13036.9 35777.7 -15874.3 -18627 38398.4 -18575.1 -20541.6 36534.2 -16648.9 -19178.9 37568.1 -17715.2 -19934.9 38003.6 -18112 -15061.3 40863.6 -20990.6 -16619.3 38827.6 -18943.4 -15508.2 39955.6 -20080.2 -16123.2 29198.6 -9206.85 -3240.86 30724.6 -10735.6 -3497.69 29641.9 -9651.33 -3315.58 30243.9 -10255 -3416.93 29470.5 -9475.18 -237.524 31018.2 -11023.7 -257.047 29920.4 -9925.16 -243.125 30530.9 -10536.6 -250.894 29326.8 -9338.53 -2329.21 30862.1 -10877.1 -2513.67 29772.8 -9785.54 -2382.86 30378.5 -10393.1 -2455.64 29433.6 -9444.23 -1142.61 30977.5 -10990.4 -1233.16 29882.3 -9893.18 -1168.91 30491.3 -10503.7 -1204.65 24552.2 -4548.47 -12938.4 25706.7 -5706.5 -13969.6 24887.7 -4885.13 -13237.9 25343 -5342.52 -13644.8 27990.1 -8005.72 -7451.13 29421.1 -9440.83 -8042.21 28406.2 -8422.01 -7622.85 28970.7 -8988.73 -7856.16 25795.6 -5802.89 -11384.3 27049 -7061.53 -12291.1 26159.9 -6168.29 -11647.6 26654.2 -6665.39 -12005.4 27154.8 -7172.27 -9207.12 28517.6 -8540.84 -9938.99 27550.9 -7569.16 -9419.64 28088.5 -8109.64 -9708.48 23363.4 -3358.33 -11880.1 24377.9 -4374.04 -12783.1 23659.2 -3653.5 -12142.6 24059.3 -4054.64 -12499.1 26518.3 -6530.93 -6841.65 27773.9 -7790.22 -7362.06 26883.5 -6897.91 -6993.5 27378.9 -7395.2 -7198.89 24506.6 -4509.48 -10452.6 25606.4 -5613.7 -11247.8 24826.9 -4830.93 -10684.1 25260.6 -5267.01 -10998 25753.9 -5765.97 -8453.33 26948.9 -6966.86 -9096.9 26101.6 -6116.02 -8641.02 26573 -6590.26 -8895.04 27461 -7460.11 -15533.5 28993.4 -8985.97 -16893.1 27904.4 -7902.44 -15927.4 28508.8 -8505.15 -16464 31590.2 -11618.9 -8938.99 33477.5 -13525.8 -9724.26 32137.1 -12169.2 -9165.81 32881.4 -12922.2 -9475.76 28953.5 -8969.15 -13667.6 30611.8 -10634.8 -14867.6 29434.2 -9450.68 -14014.8 30088.2 -10108.5 -14488.4 30585.9 -10617.6 -11050.7 32383.6 -12436.5 -12023.6 31107.4 -11142.3 -11331.7 31816.4 -11860.6 -11715.6 25906 -5905.23 -14147.3 27231.3 -7231.42 -15329.5 26290.2 -6289.53 -14490.3 26812.9 -6813.32 -14956.9 29667.8 -9688.05 -8144 31306.6 -11335.1 -8821.82 30143.2 -10165.8 -8340.5 30789.6 -10816.2 -8608.01 27265.4 -7278 -12447.4 28704.3 -8720.58 -13487.9 27682.6 -7696.36 -12749.2 28250.1 -8266.08 -13159.9 28752.7 -8776.64 -10065.2 30315.4 -10347 -10905.4 29205.9 -9232.24 -10308.8 29822.3 -9852.42 -10640.4 2073.05 17924.2 -8311.64 1073.14 18926 -9358.73 1786.96 18207.9 -8609.84 1391.82 18602.4 -9022.97 9342.2 10661 -11464.7 9258.06 10741.5 -12912.5 9319.37 10684.5 -11875.4 9285.47 10715.5 -12446.6 3982.67 16017.5 -9782.68 3222.19 16777.4 -11016.3 3765.88 16232.7 -10133.5 3465.19 16531.8 -10620.2 6906.29 13096.8 -11059.9 6514.39 13485.9 -12456 6795.57 13207.5 -11456.2 6640.27 13360.2 -12007 3037.24 16961.5 -7301 2219.38 17779 -8159.04 2806.65 17195.3 -7545.17 2483.43 17517.4 -7883.69 9420.93 10580.4 -10071 9352.98 10648.1 -11255 9401.05 10599.8 -10409 9373.72 10626 -10876.1 4714.15 15287.5 -8593.03 4093.18 15907.2 -9603.3 4538.64 15464.7 -8880.88 4293.09 15708.7 -9279.45 7281.83 12721.5 -9715.31 6962.15 13039.7 -10857.4 7190.78 12812.3 -10041.1 7064.1 12937.3 -10491.7 -1468.66 21460.7 -565.719 -2914.57 22909.1 -636.814 -1882.62 21871.3 -585.678 -2453.77 22441.9 -613.665 1205.07 18790.7 -7387.45 97.1464 19902.3 -8317.79 887.647 19105.6 -7652.53 449.893 19543.5 -8019.61 -1159.82 21153.1 -2713.55 -2561.7 22563.6 -3055.67 -1562.17 21552.9 -2810.74 -2115.94 22108.7 -2945.7 -106.09 20100.5 -5458.53 -1376.17 21377.9 -6145.9 -470.607 20462.5 -5654.36 -972.345 20965.8 -5925.57 -81.9379 20060.3 -498.415 -1256.71 21250.5 -555.552 -411.539 20401.9 -514.77 -875.579 20870.9 -537.266 2275.34 17721.8 -6489.63 1367.63 18629.6 -7251.77 2019.47 17981.5 -6706.32 1660.82 18339.2 -7007.01 197.081 19793.2 -2386.9 -953.425 20948.6 -2663.88 -127.053 20124.1 -2465.28 -581.504 20579.4 -2574.55 1124.72 18870.6 -4796.8 80.8675 19915.3 -5358.3 830.345 19169.5 -4956.13 417.993 19581.2 -5177.67 -5300.68 25286.5 -758.607 -7542.46 27552.2 -872.725 -5941.15 25921.9 -791.203 -6826.76 26814.2 -836.276 -1733.86 21720.6 -9846.43 -3463.33 23454.4 -11300.9 -2226.8 22205.6 -10256.8 -2910.36 22887.9 -10830.5 -4877.12 24873.6 -3619.41 -7063.33 27077.2 -4150.36 -5501.09 25490.8 -3769.9 -6364.81 26358.5 -3979.35 -3475.9 23466.6 -7275.17 -5460.33 25460.9 -8346.42 -4042.12 24024.4 -7577.89 -4826.27 24809.5 -8000.44 -3168.71 23169.4 -649.823 -4973.31 24963.6 -741.94 -3672.92 23678 -675.626 -4385.78 24384.8 -712.008 -97.2456 20102.5 -8483.01 -1482.57 21474.1 -9637.72 -483.774 20492.3 -8808.11 -1031.31 21032.3 -9263.55 -2807.29 22817 -3116.72 -4558.48 24560.1 -3542.65 -3295.39 23311.6 -3236.81 -3987.21 23998.1 -3404.83 -1598.64 21607.4 -6268 -3186.94 23183.3 -7121.05 -2041.13 22055 -6508.2 -2668.72 22675.6 -6844.67 -4816.06 24786.8 -15508 -7461.82 27431.8 -18263.5 -5560.14 25515.6 -16276 -6606.43 26554.9 -17362.7 8783.29 11230 -21393.4 8560.94 11438.1 -25220.2 8727.37 11290.5 -22451 8636.13 11368.9 -23959.6 -1248.2 21226.4 -18259.3 -3266.5 23235.4 -21516.7 -1811.55 21780.1 -19164.1 -2610.47 22568.4 -20448.6 4225.44 15775 -20642.9 3185.75 16802.7 -24335.9 3940.72 16060.3 -21664.9 3527.49 16461.7 -23120.9 -2413.33 22415.5 -13013.9 -4440.84 24419.1 -15120.6 -2969.73 22978.3 -13600.3 -3771.62 23766.3 -14431 8970.41 11031.4 -17959.4 8806.78 11195.8 -20862.8 8921.61 11076.8 -18771.4 8854.7 11139.3 -19916.2 574.262 19427.2 -15323.2 -966.104 20946.1 -17803.9 149.338 19853.3 -16014.8 -460.588 20450 -16992.8 5153.62 14848.8 -17326.8 4364.93 15628.6 -20129.7 4932.55 15066.7 -18109.8 4619.01 15371.9 -19215 -11424.1 31378.6 -1071.08 -15268.8 35192.2 -1301.15 -12510 32428.3 -1131.17 -14029.4 33928.1 -1221.37 -6431.07 26406.1 -13778.5 -9353.28 29338.8 -16221 -7255.09 27214.7 -14460.5 -8410.37 28367.6 -15423.7 -10811.8 30818.4 -5061.21 -14474.5 34543 -5979.48 -11849.7 31845.2 -5315.91 -13297.2 33310.2 -5677.82 -8857.08 28855.2 -10174.5 -12178.7 32226.5 -11978.4 -9797.25 29785.4 -10678.7 -11110.1 31111.3 -11390.1 -7938.27 27966 -892.857 -10874.3 30850.4 -1041.81 -8738.38 28777 -933.01 -9898.6 29911.7 -991.373 -3768.96 23773.2 -11563.2 -6014.56 25998.3 -13434.3 -4384.72 24398.4 -12083.5 -5272.52 25273.7 -12821.4 -7449.57 27480.8 -4245.53 -10285 30301.6 -4933.08 -8226.95 28272.9 -4435.18 -9347.43 29382.8 -4706.17 -5810.78 25827.2 -8539.25 -8380.39 28386.6 -9919.86 -6515.86 26546.1 -8922.4 -7531.4 27553.2 -9466.84 -22327.5 41921.7 -1783.99 -29754.4 48534.3 -2380.43 -24390.3 43763.4 -1937.06 -27324.1 46368 -2170.67 -14624.3 34578.3 -20616.1 -19995 40320.4 -25251.2 -16128.8 36098.4 -21884.2 -18254.4 38347.6 -23711 -21098.6 41222.1 -7582.13 -27874.6 48345.7 -9205.91 -23002 43137.7 -8028.77 -25681.4 45934.9 -8667.79 -18151.9 38310.1 -15175.9 -24172.2 45092.5 -18494.5 -19851.2 40098.3 -16086.9 -22233.6 42756.1 -17394.3 -15958.5 35910.5 -1347.89 -21295.2 40990.8 -1710.33 -17377.5 37330.8 -1443.16 -19485.5 39332.6 -1585.04 -9877.72 29890.5 -16668.5 -13869.4 33828.4 -19984.7 -10952.2 30977.4 -17569.7 -12532.1 32521.1 -18876.2 -15128.4 35242.7 -6149.33 -20140.3 40271.7 -7357.97 -16469.8 36629.4 -6485.33 -18451.3 38605.2 -6961.09 -12772.5 32859.2 -12308.3 -17294.7 37431.8 -14720.6 -13988.5 34112.4 -12968.8 -15777.7 35905.2 -13919 10812.4 9183.49 -14097.1 10870.8 9130.01 -15042.5 10828.6 9167.08 -14374.1 10851.6 9145.83 -14747.2 19741.8 263.172 -10219.4 20394.8 -390.512 -10906.4 19932.7 71.9016 -10420.2 20190.3 -186.263 -10691.4 13807.6 6190.61 -13595.1 14065.5 5935.68 -14506.8 13882.5 6115.33 -13862.1 13984.2 6014.57 -14222 17399.2 2605.1 -12023.5 17895.7 2108.88 -12830.9 17544.2 2459.55 -12259.8 17740.1 2263.54 -12578.5 10755.9 9242.93 -13104.7 10804.1 9192.19 -13952.7 10770.2 9228.4 -13352.8 10789.1 9208.26 -13687.6 19056.8 946.467 -9500.94 19642.2 362.731 -10114.7 19228.5 776.055 -9680.43 19459.4 545.527 -9922.71 13539.7 6459.98 -12638.7 13768.7 6229.96 -13455.9 13607 6393.13 -12877.7 13697.3 6302.21 -13200.3 16878.3 3124.6 -11178.3 17323.6 2680.95 -11900.4 17009.1 2995.37 -11389.4 17184.7 2820.13 -11674.5 10614.4 9383.82 -10685.7 10651.7 9348.64 -11306 10624.9 9373.17 -10868.1 10639.6 9359.22 -11113 17384.9 2614.68 -7746.72 17813.7 2185.74 -8197.47 17510.9 2488.61 -7879.12 17680.1 2319.22 -8057.04 12884 7113.03 -10305.9 13053 6946.08 -10904.5 12933.4 7063.7 -10481.9 13000 6997.73 -10718.2 15607.1 4391.08 -9115.08 15933.3 4065.62 -9645.04 15702.9 4295.28 -9270.8 15831.6 4166.74 -9480 10577.1 9421.9 -10026.4 10609 9389.42 -10590.3 10586.6 9412.61 -10192.1 10599.1 9399.73 -10414.7 16928.8 3069.37 -7268.81 17319 2680.52 -7677.55 17043.7 2955.29 -7388.89 17197.7 2801.74 -7550.23 12705.8 7290.54 -9670.14 12858.3 7138.84 -10213.9 12750.8 7246.26 -9829.86 12810.9 7186.32 -10044.5 15260.2 4736.17 -8553.05 15557.1 4441.15 -9033.7 15347.7 4649.78 -8694.19 15464.8 4533.26 -8883.92 11661.1 8342.54 -28537.7 11849.6 8217.35 -31311.6 11710.3 8300.77 -29339.8 11783.9 8250.56 -30434.4 29716.3 -9690.22 -20672.6 31630.2 -11637.5 -22692.6 30267.9 -10250.9 -21254.4 31022.3 -11020.2 -22051.6 17739.7 2294.56 -27502 18524.1 1575.7 -30179.2 17961.7 2081.4 -28275.2 18270.4 1796.81 -29331.7 25004.8 -4947.35 -24311.2 26480.2 -6410.5 -26685.2 25428.3 -5371.72 -24995.5 26009.8 -5950.04 -25932.3 11500.3 8502.7 -25740.5 11636.7 8365.41 -28123 11540.4 8463.37 -26428 11593.6 8408.53 -27368.2 27788.7 -7758.04 -18652.8 29431.2 -9401.88 -20372.6 28264.9 -8228.67 -19148.2 28912.4 -8878.01 -19826.9 16974.3 3047 -24810.9 17625.9 2405.82 -27102.6 17163.3 2863.21 -25471.5 17419.9 2609.45 -26375.9 23527 -3481.85 -21936.4 24786.2 -4728.32 -23958.1 23892.5 -3837.69 -22518.4 24388.7 -4330.29 -23316.2 11121.9 8873.82 -19444.8 11220.7 8786.69 -20988.7 11148.6 8846.98 -19894.6 11187.3 8812.28 -20503.9 23436.9 -3426.47 -14093.9 24503.4 -4494.73 -15217 23746.8 -3737.39 -14420.2 24167.4 -4159.34 -14863.5 15256.1 4748.1 -18749.1 15681.2 4332.46 -20238.3 15378.4 4625.85 -19182.8 15545.9 4461.5 -19770.6 20210.2 -195.284 -16580 21023.2 -1005.39 -17899.3 20446.1 -431.786 -16963.7 20766.8 -751.835 -17484.5 11032.2 8968.44 -17851.9 11108.4 8887.99 -19211.2 11054.6 8946 -18247.3 11084.4 8913.99 -18783.7 22337.5 -2328.41 -12941.4 23275.9 -3265.29 -13924.7 22611.3 -2600.28 -13227.1 22981.4 -2970.3 -13615.2 14825 5179.01 -17214 15192.9 4811.75 -18523.9 14932.5 5073.32 -17594.9 15077.5 4928.11 -18111.8 19372.3 638.594 -15223.8 20087.6 -72.5007 -16380.8 19581.3 432.896 -15559.9 19863.4 151.988 -16016.6 25016.6 -5019.08 -2536.46 26064.9 -6069.32 -2713.51 25322.7 -5325.56 -2588.18 25736.3 -5740.26 -2658.07 25229.2 -5230.37 -186.951 26291.5 -6295.14 -199.818 25539.4 -5541.14 -190.731 25958.6 -5961.59 -195.794 25118.4 -5122.51 -1822.35 26174.1 -6179.86 -1949.7 25426.7 -5431.16 -1859.55 25843.2 -5848.67 -1909.83 25202 -5205.7 -893.871 26263.1 -6268.81 -956.309 25511.8 -5516.11 -912.111 25930.5 -5935.89 -936.756 24291.2 -4294.97 -5266.46 25288.7 -5294.93 -5633.8 24582.5 -4587.01 -5373.69 24976.1 -4981.87 -5518.68 24948.5 -4949.78 -2917.23 25991.8 -5995.29 -3120.69 25253.2 -5254.84 -2976.66 25664.8 -5667.69 -3056.98 24533.2 -4534.9 -4559.98 25547.3 -5551.71 -4877.8 24829.4 -4831.75 -4652.77 25229.5 -5233.27 -4778.21 24792.6 -4793.02 -3631.44 25824.8 -5827.78 -3884.52 25094.1 -5094.98 -3705.35 25501.3 -5503.58 -3805.24 25459.4 -5465.48 -5696.62 26583.9 -6594.02 -6112.08 25787.3 -5794.08 -5817.57 26230.9 -6239.73 -5981.57 26170.3 -6173.85 -3155.44 27347.4 -7351.94 -3384 26513.4 -6517.5 -3222.19 26977.8 -6982.7 -3312.4 25720.8 -5725.23 -4932.15 26864.7 -6872.03 -5291.1 26054.3 -6059.4 -5036.73 26505.5 -6512.26 -5178.43 26001.4 -6004.47 -3927.76 27166.1 -7170.65 -4212.73 26340.8 -6344.57 -4010.91 26800.3 -6805.08 -4123.4 21276.6 -1271.75 -1904 21953 -1950.05 -2018.55 21475.1 -1470.69 -1937.62 21742 -1738.52 -1982.84 21435.9 -1430.36 -140.475 22121.6 -2118.11 -148.93 21637.1 -1632.1 -142.948 21907.7 -1903.66 -146.281 21353.8 -1349.36 -1367.82 22035 -2032.21 -1450.07 21553.7 -1549.67 -1391.96 21822.5 -1819.29 -1424.43 21416.4 -1411.69 -670.901 22101.2 -2098.21 -711.219 21617.4 -1613.1 -682.726 21887.6 -1884.18 -698.641 20730.4 -726.202 -3952.39 21374 -1371.47 -4190.31 20919.2 -915.521 -4022.2 21173.2 -1170.31 -4116.11 21224.9 -1219.62 -2189.93 21898 -1894.84 -2321.71 21422.4 -1417.64 -2228.6 21688 -1684.26 -2280.62 20911.9 -906.762 -3422.64 21566.3 -1563.04 -3628.66 21103.9 -1099.28 -3483.09 21362.1 -1358.42 -3564.41 21107 -1101.43 -2726.05 21773 -1769.54 -2890.12 21302.4 -1297.38 -2774.19 21565.2 -1561.19 -2838.96 21483.3 -1480.76 -4230.66 22197.2 -2197.33 -4494.92 21692.6 -1690.54 -4308.05 21974.3 -1973.49 -4412.36 22012.3 -2009.28 -2344.04 22759.4 -2757.51 -2489.82 22231.2 -2228.69 -2386.82 22526 -2524.14 -2444.36 21677.4 -1674.23 -3663.6 22403.5 -2402.42 -3892.21 21890.2 -1887.55 -3730.59 22176.7 -2175.09 -3820.84 21886.1 -1882.77 -2917.94 22625.3 -2623.34 -3099.67 22102.7 -2099.89 -2971.24 22394.4 -2392.32 -3042.98 41398.4 -21389.4 -5303.28 44664.7 -24656.3 -5857.6 42336.1 -22323.1 -5463.33 43623.9 -23613.3 -5682.27 41859.4 -21838.6 -380.138 45152.9 -25142 -421.99 42805.5 -22785.8 -390.484 44103.5 -24090.6 -406.374 41599.5 -21611 -3822.96 44888.3 -24891 -4221.81 42544 -22550.9 -3938.73 43841.2 -23846.1 -4096.5 41779.7 -21791.8 -1877.22 45080.8 -25079 -2074.06 42727.6 -22736.5 -1933.66 44029.4 -24034.7 -2011.38 39877.3 -19913.8 -10990.9 42963.5 -22968.1 -12142.1 40762.3 -20795.5 -11318.2 41978.3 -22002.2 -11772.1 41266.5 -21244.7 -6087.7 44517.1 -24496.4 -6725.2 42199.1 -22173.8 -6270.8 43480.4 -23458.1 -6522.34 40401.8 -20402.2 -9504.31 43552.1 -23525.3 -10502.6 41304.3 -21300.7 -9787.88 42545.3 -22534.6 -10181.3 40950.8 -20924.4 -7566.01 44165.1 -24129.9 -8360.52 41872 -21842.1 -7792.56 43138.5 -23108.4 -8105.72 43509.1 -23497.6 -12347.8 47232.7 -27113.5 -13813.8 44570.3 -24532 -12755 46036.9 -25961 -13332.2 45090.5 -25069.2 -6837 49027.2 -29039.2 -7574.74 46206.5 -26194.8 -7053.31 47755.3 -27763.3 -7345.61 44110.1 -24069.5 -10681.6 47936.5 -27825.1 -11965.8 45197.1 -25137.3 -11036.7 46703.4 -26621.6 -11542.2 44733.9 -24692.8 -8502.07 48639.5 -28612.6 -9496.29 45841.6 -25801.2 -8781.12 47378.4 -27350.1 -9173.18 30987.9 -10998.1 -3541.87 32737.3 -12748.1 -3835.67 31495.5 -11505.5 -3627.13 32185.5 -12196.5 -3743.1 31285.1 -11289.8 -260.348 33058.9 -13064.8 -281.784 31799.6 -11804.3 -266.599 32499.2 -12505.2 -275.01 31127 -11141.5 -2545.44 32887.8 -12903.6 -2757.2 31637.8 -11652.5 -2606.81 32332.4 -12348.4 -2690.39 31243.8 -11256.4 -1248.76 33014.1 -13028.7 -1352.94 31757.2 -11770.4 -1278.89 32455.5 -12470.3 -1319.99 29978.4 -9993.02 -7359.23 31643.2 -11665 -7970.55 30461.4 -10477.9 -7536.5 31118 -11138.2 -7777.77 30895.4 -10902 -4073.03 32637.1 -12644.3 -4410.42 31400.8 -11407 -4170.98 32087.8 -12095.1 -4304.15 30318.9 -10326.8 -6369.44 32012.2 -12025.1 -6897.41 30810.2 -10819.2 -6522.62 31478.1 -11489.9 -6730.99 30680.8 -10684.8 -5070.45 32404.6 -12410.5 -5490.16 31181 -11185 -5192.3 31860.9 -11866.5 -5357.95 31931.3 -11953.1 -8076.19 33850.3 -13886.8 -8783.55 32487 -12511.6 -8280.64 33243.8 -13275.2 -8559.87 32938.4 -12944.8 -4468.6 34949 -14949.6 -4856.57 33520 -13525.8 -4580.97 34312.9 -14317.6 -4734.08 32305.2 -12317.9 -6988.58 34259.4 -14278.1 -7597.99 32870.6 -12884.8 -7164.92 33641.3 -13658.9 -7405.5 32702.8 -12708.1 -5562.55 34693.5 -14695.1 -6045.44 33278.5 -13283.7 -5702.45 34063.6 -14068.4 -5893.07 22945.9 -2944.24 -2186.14 23781.1 -3781.38 -2327.45 23190.5 -3189.07 -2227.43 23520 -3519.63 -2283.22 23128.4 -3126.73 -161.414 23976.2 -3975.68 -171.451 23376.7 -3375.17 -164.368 23711.2 -3710.38 -168.306 23034.4 -3033.64 -1570.53 23874.7 -3876.59 -1672.17 23280.5 -3280.33 -1600.25 23612 -3613.19 -1640.38 23106.1 -3105.54 -770.479 23951.4 -3953.17 -820.277 23353.6 -3353.74 -785.08 23687.1 -3688.44 -804.735 22318.7 -2319.09 -4539.84 23114.5 -3116.69 -4833.43 22551.5 -2552.73 -4625.92 22865.6 -2867.67 -4741.8 22886.5 -2884.37 -2514.54 23718.4 -3717.66 -2676.95 23130.1 -3128.03 -2562.01 23458.4 -3457.06 -2626.12 22527.1 -2526.03 -3931.04 23336.7 -3336.75 -4185.03 22764 -2763.34 -4005.46 23083.5 -3083.46 -4105.71 22751.2 -2748.93 -3130.49 23575 -3573.65 -3332.62 22992.4 -2990.13 -3189.63 23317.5 -3315.78 -3269.4 23250.2 -3252.12 -4883.29 24139.5 -4143.1 -5210.65 23510.3 -3512.43 -4979.01 23861.2 -3864.25 -5108.23 23860.1 -3859.52 -2704.65 24789.7 -4791.21 -2886.29 24131.9 -4132.02 -2757.8 24498.7 -4499.91 -2829.49 23474.6 -3474.57 -4228.22 24378.9 -4380.56 -4511.68 23739.1 -3739.38 -4311.13 24095.9 -4097.13 -4423.02 23715.3 -3714.02 -3367.05 24635.5 -4636.07 -3592.97 23984.4 -3983.67 -3433.15 24347.5 -4347.76 -3522.32 19911.6 96.6408 -1673.33 20467.3 -460.079 -1766.95 20075.1 -66.8708 -1700.76 20294.4 -286.695 -1737.72 20053.2 -42.7371 -123.4 20615.3 -607.232 -130.418 20218.2 -208.548 -125.565 20440.1 -431.427 -128.311 19979 28.4315 -1201.71 20538.7 -532.335 -1269.37 20143.7 -136.385 -1221.6 20364.6 -357.81 -1248.32 20034.7 -26.3089 -588.966 20596.9 -590.285 -622.621 20200 -192.146 -598.967 20421.8 -414.833 -612.246 19433 575.314 -3471.66 19960.3 45.6156 -3667.48 19587.8 419.559 -3529.28 19795.9 210.408 -3606.58 19866.7 142.486 -1924.71 20419.4 -411.626 -2032.27 20029.3 -20.2328 -1956.22 20247.4 -239.025 -1998.68 19592.8 417.015 -3006.92 20129 -121.643 -3175.99 19750.3 258.711 -3056.6 19961.9 46.0251 -3123.33 19763.9 246.278 -2395.61 20310.1 -301.988 -2529.71 19924.5 85.2555 -2434.93 20140 -131.225 -2487.86 20049.6 -43.8086 -3700.54 20631.7 -627.423 -3915.94 20220.6 -215.122 -3763.82 20450.3 -445.565 -3848.85 20512.8 -505.349 -2050.55 21121.7 -1116.32 -2169.74 20691.6 -684.825 -2085.54 20931.9 -926.069 -2132.59 20219.8 -212.655 -3204.6 20811.6 -806.326 -3391.07 20393.6 -386.977 -3259.37 20627.2 -621.388 -3332.98 20402.6 -394.711 -2552.47 21004.9 -999.214 -2700.91 20579.5 -572.275 -2596.05 20817.2 -810.963 -2654.64 35408.8 -15411.7 -4283.38 37754.2 -17754.7 -4681.19 36086.3 -16086.7 -4397.61 37011.2 -17012 -4554.65 35772.8 -15771.9 -313.877 38159.1 -18151 -337.988 36461.8 -16458.3 -320.873 37402.8 -17397.8 -330.196 35574.6 -15589.4 -3081.32 37931.7 -17950.2 -3371.49 36255.3 -16270.4 -3164.54 37184.7 -17202.8 -3279.15 35716.9 -15734.1 -1513.27 38089.8 -18110.2 -1655.88 36401.9 -16420.5 -1554.21 37337.5 -17358.9 -1610.49 34183.5 -14222 -8906.21 36418 -16462.7 -9723.82 34828.2 -14870.8 -9143.03 35709.6 -15755.7 -9465.61 35298.6 -15295.6 -4923.76 37637.3 -17627.7 -5377.29 35974.2 -15967.2 -5054.16 36896.6 -16888.2 -5233.14 34599.2 -14617.3 -7703.47 36876.5 -16891.7 -8407.88 35256.5 -15274.5 -7907.21 36154.8 -16172.8 -8185.09 35039.9 -15038.2 -6128.92 37358.6 -17347.9 -6689.27 35709.6 -15703.9 -6290.49 36624.2 -16616.1 -6511.55 36807.7 -16849.7 -9865.55 39420.7 -19459.6 -10823.2 37561.5 -17601.4 -10140.8 38591.8 -18632.1 -10518.7 38044.7 -18033.7 -5456.66 40785.7 -20768.9 -5993.44 38833.6 -18822.1 -5610.78 39914.2 -19902.3 -5822.54 37273.5 -17285.8 -8530.33 39936.2 -19940.4 -9358.98 38041.3 -18050.8 -8768.26 39091.3 -19099.2 -9095.29 37762.5 -17749.6 -6787.09 40475.7 -20454.1 -7449.66 38544.1 -18529.2 -6977.22 39613.9 -19597.4 -7238.67 27629.4 -7634.48 -2976.46 28968.4 -8976.44 -3202.05 28019.3 -8024.64 -3041.99 28547.5 -8554.56 -3131.05 27877.4 -7882.4 -219.012 29236.7 -9241.98 -234.707 28273.1 -8278.01 -223.569 28809.4 -8814.87 -229.708 27748.7 -7756.17 -2138.93 29095.2 -9106.89 -2301.33 28140.8 -8149.21 -2186.15 28671.9 -8682.6 -2250.28 27846 -7854.16 -1049.42 29200.5 -9211.67 -1128.97 28240.3 -8249.47 -1072.62 28774.7 -8785.53 -1104.01 26776.8 -6787.34 -6183.36 28053.7 -8065.98 -6653.16 27148.3 -7159.78 -6320.4 27652 -7664.7 -6505.81 27549.4 -7553.26 -3423.06 28883.8 -8889.18 -3682.26 27938 -7941.58 -3498.37 28464.4 -8469.11 -3600.68 27061.2 -7068.27 -5352.61 28360.8 -8367.99 -5758.61 27439.4 -7446.52 -5470.92 27952.1 -7959.76 -5631.15 27366.2 -7369.98 -4261.46 28688.5 -8692.24 -4584.14 27751.2 -7754.41 -4355.32 28272.9 -8276.54 -4482.67 28273.4 -8284.96 -6733.62 29727.8 -9742.13 -7267.38 28696.4 -8707.84 -6888.74 29270.1 -9283.27 -7099.43 29113.2 -9118.64 -3726.87 30633.2 -10640.7 -4022.25 29554.9 -9561.23 -3812.8 30154.5 -10162.3 -3929.38 28584.4 -8590.86 -5828.26 30063.9 -10072 -6290.03 29014.6 -9021.05 -5962.51 29598.2 -9605.95 -6144.79 28915.8 -8919.29 -4639.63 30421.3 -10426 -5007.27 29353.5 -9357.31 -4746.56 29947.3 -9952.29 -4891.68 </DataArray> 
<DataArray  type="Float64"  Name="u" NumberOfComponents="3" format="ascii"> 
0.00012188 0.0014546 0 0.000123947 0.00147933 0 0.000122483 0.0014618 0 0.000123298 0.00147156 0 8.96642e-06 0.00145969 0 9.11844e-06 0.0014845 0 9.01065e-06 0.00146691 0 9.07064e-06 0.00147671 0 8.7402e-05 0.00145709 0 8.88842e-05 0.00148186 0 8.78338e-05 0.0014643 0 8.84187e-05 0.00147408 0 4.28111e-05 0.00145908 0 4.3537e-05 0.00148389 0 4.30225e-05 0.00146631 0 4.3309e-05 0.0014761 0 0.00131913 0.000565001 0 0.00136206 0.00058339 0 0.00133115 0.000570148 0 0.00134808 0.000577397 0 0.00104346 0.000985381 0 0.00107737 0.00101744 0 0.00105295 0.000994357 0 0.00106632 0.00100699 0 0.00125268 0.000700235 0 0.00129344 0.000723027 0 0.00126409 0.000706614 0 0.00128016 0.000715599 0 0.00114335 0.000867435 0 0.00118053 0.000895666 0 0.00115376 0.000875337 0 0.00116841 0.000886466 0 0.00127982 0.000548159 0 0.00131304 0.000562395 0 0.0012891 0.000552137 0 0.00130219 0.000557748 0 0.00101238 0.000955984 0 0.00103866 0.000980834 0 0.00101972 0.000962926 0 0.00103008 0.000972723 0 0.00121534 0.000679357 0 0.0012469 0.000697005 0 0.00122416 0.000684288 0 0.0012366 0.000691245 0 0.00110928 0.000841559 0 0.00113808 0.000863432 0 0.00111733 0.00084767 0 0.00112868 0.000856293 0 0.00162905 0.000697762 0 0.00175087 0.000750711 0 0.00166287 0.000712379 0 0.00171085 0.000733232 0 0.00128849 0.00121675 0 0.00138513 0.00130719 0 0.00131523 0.0012419 0 0.00135328 0.00127752 0 0.00154721 0.000864802 0 0.00166323 0.000930181 0 0.00157938 0.000882876 0 0.00162507 0.000908625 0 0.00141209 0.00107122 0 0.00151813 0.00115129 0 0.00144145 0.00109344 0 0.00148319 0.00112498 0 0.0015195 0.000650792 0 0.00161201 0.000690417 0 0.00154528 0.000661807 0 0.00158171 0.000677405 0 0.00120176 0.00113499 0 0.001275 0.00120406 0 0.00122217 0.00115425 0 0.00125102 0.00118146 0 0.00144299 0.000806581 0 0.00153099 0.000855711 0 0.00146751 0.000820246 0 0.00150217 0.00083959 0 0.00131695 0.000999169 0 0.00139729 0.00106001 0 0.00133933 0.00101612 0 0.00137098 0.00104009 0 0.000114775 0.00136948 0 0.000116007 0.00138426 0 0.000115132 0.00137378 0 0.000115619 0.00137961 0 8.44344e-06 0.00137428 0 8.53409e-06 0.0013891 0 8.46974e-06 0.00137858 0 8.50551e-06 0.00138443 0 8.23068e-05 0.00137183 0 8.31902e-05 0.00138663 0 8.25633e-05 0.00137613 0 8.2912e-05 0.00138197 0 4.0315e-05 0.00137371 0 4.07477e-05 0.00138853 0 4.04406e-05 0.00137801 0 4.06114e-05 0.00138386 0 0.000153671 0.00183362 0 0.000159602 0.00190441 0 0.000155399 0.00185411 0 0.000157742 0.00188203 0 1.13073e-05 0.00184007 0 1.17247e-05 0.00191111 0 1.14334e-05 0.00186062 0 1.15997e-05 0.00188865 0 0.000110195 0.00183676 0 0.000114399 0.00190756 0 0.000111431 0.00185727 0 0.000113094 0.00188521 0 5.39797e-05 0.00183931 0 5.60031e-05 0.00191015 0 5.45829e-05 0.00185984 0 5.53861e-05 0.00188779 0 0.000942957 0.000999028 0 0.000953123 0.00100982 0 0.00094591 0.00100216 0 0.000949922 0.00100642 0 0.000540795 0.00126307 0 0.000546614 0.0012767 0 0.000542485 0.00126703 0 0.000544782 0.00127241 0 0.000830113 0.00109465 0 0.000839057 0.00110647 0 0.000832711 0.00109808 0 0.000836241 0.00110275 0 0.000670166 0.00119935 0 0.000677382 0.00121229 0 0.000672262 0.00120311 0 0.00067511 0.00120822 0 0.000932556 0.00098799 0 0.000941426 0.000997402 0 0.000935129 0.00099072 0 0.00093863 0.000994435 0 0.000534843 0.00124912 0 0.000539918 0.00126102 0 0.000536315 0.00125257 0 0.000538318 0.00125726 0 0.00082096 0.00108256 0 0.000828765 0.00109287 0 0.000823224 0.00108555 0 0.000826305 0.00108962 0 0.000662783 0.0011861 0 0.000669079 0.0011974 0 0.000664609 0.00118938 0 0.000667094 0.00119384 0 0.00100152 0.00106118 0 0.00101854 0.00107923 0 0.00100647 0.00106644 0 0.00101319 0.00107356 0 0.000574333 0.00134157 0 0.000584083 0.00136437 0 0.000577173 0.00134821 0 0.000581021 0.00135721 0 0.000881639 0.00116272 0 0.000896614 0.00118249 0 0.000885999 0.00116848 0 0.00089191 0.00117628 0 0.000711741 0.00127389 0 0.000723826 0.00129555 0 0.000715261 0.0012802 0 0.00072003 0.00128875 0 0.000983951 0.00104253 0 0.000998942 0.00105844 0 0.000988316 0.00104716 0 0.000994232 0.00105344 0 0.000564261 0.00131801 0 0.000572857 0.00133811 0 0.000566764 0.00132387 0 0.000570156 0.0013318 0 0.00086618 0.0011423 0 0.000879373 0.00115973 0 0.000870021 0.00114737 0 0.000875228 0.00115425 0 0.00069926 0.00125153 0 0.000709912 0.00127061 0 0.000702361 0.00125709 0 0.000706565 0.00126462 0 0.000133697 0.00159604 0 0.00013713 0.0016371 0 0.000134695 0.00160799 0 0.00013605 0.00162419 0 9.83694e-06 0.00160161 0 1.00907e-05 0.00164281 0 9.91067e-06 0.00161359 0 1.00108e-05 0.00162985 0 9.58752e-05 0.00159876 0 9.83386e-05 0.00163989 0 9.65918e-05 0.00161073 0 9.7564e-05 0.00162696 0 4.69638e-05 0.00160095 0 4.81728e-05 0.00164214 0 4.73153e-05 0.00161293 0 4.77924e-05 0.00162918 0 0.00109887 0.00116441 0 0.00112715 0.0011944 0 0.0011071 0.00117314 0 0.00111825 0.00118497 0 0.000630069 0.00147199 0 0.000646249 0.00150986 0 0.000634779 0.00148301 0 0.000641164 0.00149796 0 0.000967281 0.00127578 0 0.000992142 0.00130862 0 0.000974513 0.00128533 0 0.000984324 0.00129829 0 0.000780827 0.00139772 0 0.00080088 0.00143367 0 0.000786663 0.00140818 0 0.000794577 0.00142237 0 0.00106976 0.00113353 0 0.0010946 0.00115988 0 0.00107699 0.0011412 0 0.0010868 0.0011516 0 0.000613384 0.00143297 0 0.000627623 0.00146627 0 0.000617529 0.00144266 0 0.000623148 0.0014558 0 0.000941667 0.00124195 0 0.000963525 0.00127082 0 0.00094803 0.00125036 0 0.000956656 0.00126175 0 0.000760153 0.00136067 0 0.000777796 0.00139229 0 0.000765289 0.00136988 0 0.000772251 0.00138235 0 0.00126265 0.00133765 0 0.00131152 0.00138885 0 0.00127679 0.0013525 0 0.00129607 0.0013727 0 0.000723417 0.00169135 0 0.000750933 0.00175687 0 0.000731409 0.00171031 0 0.000742267 0.00173616 0 0.00111111 0.00146559 0 0.00115384 0.00152192 0 0.00112349 0.00148191 0 0.00114035 0.00150413 0 0.000896591 0.00160586 0 0.000930745 0.00166799 0 0.000906509 0.00162383 0 0.000919987 0.00164835 0 0.00121304 0.00128535 0 0.00125533 0.00132995 0 0.0012253 0.0012983 0 0.00124198 0.00131589 0 0.000695222 0.00162483 0 0.000719271 0.00168154 0 0.000702206 0.00164127 0 0.000711696 0.00166364 0 0.00106759 0.00140821 0 0.00110469 0.00145713 0 0.00107835 0.00142241 0 0.00109299 0.00144171 0 0.000861618 0.00154278 0 0.000891446 0.00159655 0 0.000870279 0.00155837 0 0.00088205 0.00157958 0 0.000117867 0.00140657 0 0.000119469 0.00142576 0 0.000118333 0.00141215 0 0.000118965 0.00141973 0 8.67143e-06 0.00141149 0 8.78936e-06 0.00143075 0 8.70578e-06 0.00141709 0 8.75232e-06 0.00142469 0 8.45244e-05 0.00140897 0 8.56735e-05 0.0014282 0 8.48587e-05 0.00141457 0 8.53122e-05 0.00142215 0 4.14022e-05 0.00141091 0 4.19651e-05 0.00143016 0 4.1566e-05 0.00141651 0 4.17882e-05 0.00142411 0 0.000501228 0.00131921 0 0.000508053 0.0013372 0 0.000503214 0.00132444 0 0.000505907 0.00133155 0 0.000274977 0.00138439 0 0.00027872 0.00140329 0 0.000276066 0.00138989 0 0.000277544 0.00139735 0 0.000432956 0.00134324 0 0.000438851 0.00136157 0 0.000434672 0.00134857 0 0.000436998 0.0013558 0 0.00034349 0.00136894 0 0.000348167 0.00138763 0 0.000344852 0.00137438 0 0.000346697 0.00138176 0 0.000494205 0.00130067 0 0.000500197 0.00131649 0 0.000495947 0.00130527 0 0.000498312 0.00131151 0 0.000271122 0.00136493 0 0.000274411 0.00138154 0 0.000272078 0.00136976 0 0.000273376 0.00137631 0 0.000426888 0.00132436 0 0.000432066 0.00134047 0 0.000428394 0.00132904 0 0.000430437 0.0013354 0 0.000338675 0.0013497 0 0.000342784 0.00136612 0 0.000339869 0.00135448 0 0.000341491 0.00136096 0 0.000518314 0.00136425 0 0.000527113 0.00138745 0 0.000520877 0.001371 0 0.00052435 0.00138016 0 0.000284345 0.00143168 0 0.000289171 0.00145604 0 0.00028575 0.00143878 0 0.000287654 0.00144839 0 0.000447713 0.00138911 0 0.000455313 0.00141273 0 0.000449926 0.00139599 0 0.000452926 0.00140531 0 0.000355195 0.00141571 0 0.000361225 0.00143979 0 0.000356951 0.00142272 0 0.00035933 0.00143222 0 0.000509226 0.0013403 0 0.000516982 0.00136074 0 0.000511484 0.00134625 0 0.000514545 0.00135432 0 0.000279363 0.00140653 0 0.000283615 0.001428 0 0.000280601 0.00141278 0 0.000282279 0.00142125 0 0.000439864 0.00136471 0 0.000446563 0.00138553 0 0.000441814 0.00137078 0 0.000444458 0.00137899 0 0.000348971 0.00139084 0 0.000354283 0.00141206 0 0.000350518 0.00139702 0 0.000352614 0.00140539 0 0.000112423 0.00134122 0 0.000113354 0.00135242 0 0.000112692 0.00134446 0 0.00011306 0.00134889 0 8.2706e-06 0.00134592 0 8.33903e-06 0.00135715 0 8.2904e-06 0.00134917 0 8.31741e-06 0.00135361 0 8.06204e-05 0.00134352 0 8.12879e-05 0.00135473 0 8.08136e-05 0.00134676 0 8.1077e-05 0.00135119 0 3.94893e-05 0.00134536 0 3.98162e-05 0.00135659 0 3.95839e-05 0.00134861 0 3.97129e-05 0.00135305 0 0.000478023 0.0012579 0 0.000481993 0.00126841 0 0.000479172 0.00126095 0 0.000480739 0.00126509 0 0.000262262 0.00132006 0 0.000264434 0.00133109 0 0.00026289 0.00132325 0 0.000263747 0.00132761 0 0.000412919 0.00128082 0 0.000416345 0.00129152 0 0.000413911 0.00128391 0 0.000415263 0.00128814 0 0.000327601 0.00130533 0 0.000330316 0.00131623 0 0.000328387 0.00130849 0 0.000329458 0.00131279 0 0.000474009 0.00124726 0 0.000477428 0.00125633 0 0.000474997 0.00124988 0 0.000476346 0.00125346 0 0.000260071 0.00130889 0 0.000261937 0.00131841 0 0.000260609 0.00131164 0 0.000261346 0.0013154 0 0.000409458 0.00126998 0 0.000412406 0.00127921 0 0.000410309 0.00127265 0 0.000411473 0.00127629 0 0.000324862 0.00129429 0 0.000327195 0.00130369 0 0.000325535 0.001297 0 0.000326456 0.00130072 0 0.00048805 0.00128442 0 0.0004933 0.00129828 0 0.000489575 0.00128845 0 0.000491647 0.00129392 0 0.000267749 0.00134788 0 0.000270625 0.00136243 0 0.000268584 0.00135211 0 0.000269719 0.00135785 0 0.000421574 0.00130782 0 0.000426107 0.00132193 0 0.00042289 0.00131192 0 0.000424679 0.00131749 0 0.00033446 0.00133284 0 0.000338055 0.00134723 0 0.000335504 0.00133702 0 0.000336923 0.0013427 0 0.000482681 0.00127023 0 0.000487259 0.00128233 0 0.000484009 0.00127374 0 0.000485816 0.00127852 0 0.00026481 0.001333 0 0.000267316 0.00134569 0 0.000265537 0.00133668 0 0.000266526 0.00134169 0 0.000416939 0.00129337 0 0.000420891 0.00130569 0 0.000418085 0.00129694 0 0.000419645 0.00130181 0 0.000330787 0.00131812 0 0.000333919 0.00133068 0 0.000331695 0.00132176 0 0.000332931 0.00132672 0 0.00014231 0.00169899 0 0.000146808 0.00175245 0 0.000143614 0.00171452 0 0.000145389 0.00173561 0 1.04749e-05 0.00170494 0 1.08065e-05 0.0017586 0 1.05714e-05 0.00172052 0 1.07023e-05 0.0017417 0 0.000102056 0.00170189 0 0.000105283 0.00175545 0 0.000102992 0.00171745 0 0.000104265 0.00173858 0 4.99994e-05 0.00170424 0 5.15812e-05 0.00175788 0 5.04588e-05 0.00171982 0 5.10831e-05 0.00174098 0 0.000605204 0.00159352 0 0.00062417 0.00164373 0 0.000610713 0.00160809 0 0.000618197 0.00162791 0 0.000332109 0.0016725 0 0.000342592 0.0017252 0 0.000335152 0.00168781 0 0.000339288 0.0017086 0 0.00052281 0.00162266 0 0.000539219 0.00167381 0 0.000527577 0.00163751 0 0.000534051 0.0016577 0 0.000414833 0.00165384 0 0.000427895 0.00170597 0 0.000418626 0.00166898 0 0.00042378 0.00168955 0 0.000585732 0.00154206 0 0.000602345 0.00158595 0 0.000590564 0.00155482 0 0.000597119 0.00157214 0 0.000321366 0.00161842 0 0.00033053 0.00166455 0 0.000324029 0.00163183 0 0.000327645 0.00165004 0 0.000505966 0.00157022 0 0.000520337 0.00161496 0 0.000510145 0.00158323 0 0.000515816 0.00160088 0 0.000401434 0.00160036 0 0.000412865 0.00164598 0 0.000404757 0.00161362 0 0.000409267 0.00163162 0 0.000652916 0.00172003 0 0.000677836 0.00178658 0 0.000660146 0.0017393 0 0.000669979 0.00176555 0 0.000358581 0.00180511 0 0.000372732 0.00187453 0 0.000362649 0.00182523 0 0.000368228 0.00185262 0 0.000564127 0.00175146 0 0.000585846 0.00181904 0 0.000570411 0.00177105 0 0.000578979 0.00179771 0 0.000447774 0.00178504 0 0.000465278 0.0018537 0 0.000452816 0.00180495 0 0.000459719 0.00183204 0 0.00062744 0.00165239 0 0.000649167 0.00171005 0 0.000633748 0.00166911 0 0.000642321 0.00169186 0 0.000344402 0.00173429 0 0.000356482 0.00179468 0 0.000347897 0.00175182 0 0.000352661 0.00177565 0 0.00054205 0.00168263 0 0.000560873 0.00174132 0 0.000547509 0.00169965 0 0.000554936 0.00172281 0 0.000430148 0.00171496 0 0.000445168 0.00177472 0 0.000434497 0.0017323 0 0.000440422 0.00175588 0 0.000127045 0.00151644 0 0.000129702 0.00154826 0 0.000127818 0.0015257 0 0.000128867 0.00153826 0 9.34721e-06 0.00152174 0 9.54295e-06 0.00155366 0 9.40426e-06 0.00153103 0 9.4815e-06 0.00154363 0 9.11054e-05 0.00151903 0 9.30107e-05 0.0015509 0 9.16601e-05 0.00152831 0 9.2412e-05 0.00154088 0 4.46268e-05 0.00152111 0 4.55605e-05 0.00155302 0 4.48987e-05 0.0015304 0 4.52672e-05 0.001543 0 0.000540305 0.00142225 0 0.000551617 0.00145209 0 0.000543598 0.00143093 0 0.000548062 0.00144271 0 0.000296423 0.00149258 0 0.000302638 0.00152391 0 0.000298234 0.0015017 0 0.000300686 0.00151407 0 0.000466715 0.00144818 0 0.00047649 0.00147857 0 0.000469562 0.00145703 0 0.000473419 0.00146902 0 0.00037028 0.00147592 0 0.000378041 0.0015069 0 0.000372541 0.00148494 0 0.000375603 0.00149717 0 0.000528623 0.00139143 0 0.000538594 0.00141773 0 0.000531527 0.00139909 0 0.000535462 0.00140947 0 0.00029 0.00146022 0 0.000295482 0.00148784 0 0.000291597 0.00146826 0 0.00029376 0.00147916 0 0.000456618 0.00141679 0 0.000465236 0.00144358 0 0.000459128 0.00142459 0 0.000462529 0.00143516 0 0.00036226 0.00144392 0 0.000369105 0.00147123 0 0.000364254 0.00145187 0 0.000366955 0.00146265 0 0.000568618 0.00149691 0 0.000583223 0.00153543 0 0.000572869 0.00150812 0 0.000578632 0.00152332 0 0.000311965 0.00157099 0 0.000319985 0.00161146 0 0.000314297 0.00158276 0 0.000317461 0.00159873 0 0.000491177 0.00152423 0 0.000503796 0.00156347 0 0.000494849 0.00153564 0 0.000499829 0.00155113 0 0.000389693 0.00155345 0 0.00039971 0.00159347 0 0.000392606 0.00156509 0 0.000396559 0.00158089 0 0.00055356 0.00145721 0 0.00056641 0.00149109 0 0.0005573 0.00146707 0 0.000562372 0.00148044 0 0.000303704 0.00152929 0 0.000310753 0.00156488 0 0.000305757 0.00153965 0 0.000308538 0.00155369 0 0.000478169 0.00148379 0 0.00048927 0.0015183 0 0.0004814 0.00149383 0 0.000485781 0.00150745 0 0.000379373 0.00151222 0 0.00038818 0.00154741 0 0.000381937 0.00152247 0 0.000385412 0.00153635 0 0.00124961 0.000535194 0 0.00127512 0.000546147 0 0.00125671 0.000538243 0 0.00126677 0.000542562 0 0.000988511 0.00093341 0 0.00100867 0.000952474 0 0.000994118 0.000938712 0 0.00100206 0.000946228 0 0.00118667 0.000663298 0 0.00121088 0.000676863 0 0.0011934 0.000667073 0 0.00120295 0.000672421 0 0.00108312 0.000821679 0 0.00110521 0.000838469 0 0.00108926 0.00082635 0 0.00109797 0.000832969 0 0.00122683 0.000525392 0 0.00124604 0.000533658 0 0.00123213 0.000527675 0 0.0012397 0.000530933 0 0.000970484 0.000916365 0 0.000985685 0.000930737 0 0.00097468 0.000920333 0 0.000980673 0.000925999 0 0.00116502 0.000651166 0 0.00118327 0.000661396 0 0.00117006 0.00065399 0 0.00117726 0.000658023 0 0.00106336 0.000806667 0 0.00108002 0.000819325 0 0.00106796 0.000810161 0 0.00107453 0.000815152 0 0.00135869 3.35255e-05 0 0.00138643 3.42124e-05 0 0.00136641 3.37165e-05 0 0.00137734 3.39872e-05 0 0.00127718 0.000465473 0 0.00130325 0.000475001 0 0.00128443 0.000468125 0 0.00129471 0.000471882 0 0.00134947 0.000161928 0 0.00137702 0.000165246 0 0.00135713 0.000162851 0 0.00136799 0.000164159 0 0.00131773 0.000333439 0 0.00134463 0.000340268 0 0.00132521 0.00033534 0 0.00133582 0.000338032 0 0.00133391 3.29062e-05 0 0.00135481 3.34291e-05 0 0.00133968 3.3052e-05 0 0.00134792 3.32579e-05 0 0.00125389 0.00045694 0 0.00127352 0.000464135 0 0.00125931 0.000458928 0 0.00126705 0.000461764 0 0.00132485 0.000158945 0 0.0013456 0.000161463 0 0.00133058 0.000159644 0 0.00133876 0.000160636 0 0.00129369 0.000327315 0 0.00131395 0.00033248 0 0.00129929 0.000328744 0 0.00130727 0.00033078 0 0.00143427 3.54016e-05 0 0.00148094 3.65545e-05 0 0.00144734 3.57256e-05 0 0.00146574 3.61804e-05 0 0.00134822 0.000491401 0 0.0013921 0.000507395 0 0.0013605 0.000495878 0 0.0013778 0.000502184 0 0.0014245 0.000170972 0 0.00147083 0.000176538 0 0.00143747 0.000172534 0 0.00145574 0.000174729 0 0.001391 0.000352028 0 0.00143626 0.000363486 0 0.00140367 0.000355237 0 0.00142152 0.000359755 0 0.00139153 3.4339e-05 0 0.00142765 3.52373e-05 0 0.00140162 3.45899e-05 0 0.00141585 3.49441e-05 0 0.00130805 0.000476752 0 0.001342 0.000489134 0 0.00131753 0.000480212 0 0.00133091 0.000485093 0 0.00138208 0.000165856 0 0.00141793 0.000170181 0 0.0013921 0.000167064 0 0.00140623 0.000168769 0 0.00134958 0.000341523 0 0.00138459 0.000350402 0 0.00135936 0.000344004 0 0.00137316 0.000347504 0 0.00143517 0.000614724 0 0.00150646 0.000645219 0 0.0014551 0.000623257 0 0.0014832 0.000635277 0 0.00113519 0.00107207 0 0.00119145 0.00112524 0 0.00115091 0.00108693 0 0.00117308 0.00110789 0 0.00136289 0.000761871 0 0.00143059 0.000799669 0 0.00138181 0.000772445 0 0.00140849 0.000787341 0 0.00124391 0.000943772 0 0.00130564 0.000990596 0 0.00126116 0.000956865 0 0.00128549 0.000975316 0 0.0013699 0.000586747 0 0.00142508 0.000610403 0 0.00138534 0.00059337 0 0.00140709 0.000602693 0 0.00108356 0.00102329 0 0.00112722 0.00106454 0 0.00109578 0.00103484 0 0.00111299 0.0010511 0 0.00130088 0.000727188 0 0.00135331 0.000756515 0 0.00131556 0.000735399 0 0.00133622 0.000746958 0 0.00118732 0.00090082 0 0.00123517 0.00093714 0 0.00120071 0.000910989 0 0.00121958 0.000925305 0 0.00156034 3.8499e-05 0 0.0016379 4.04149e-05 0 0.00158201 3.90318e-05 0 0.00161259 3.97866e-05 0 0.00146679 0.000534635 0 0.00153961 0.000561158 0 0.00148715 0.000542056 0 0.00151585 0.00055251 0 0.00154965 0.000185966 0 0.00162647 0.000195207 0 0.00157114 0.000188543 0 0.00160142 0.000192185 0 0.00151326 0.000382968 0 0.00158829 0.000401975 0 0.00153425 0.000388281 0 0.00156383 0.000395773 0 0.00148945 3.67633e-05 0 0.00154937 3.82301e-05 0 0.00150622 3.7174e-05 0 0.00152983 3.77516e-05 0 0.0014001 0.000510314 0 0.00145648 0.000530877 0 0.00141588 0.000516071 0 0.0014381 0.000524175 0 0.00147928 0.00017755 0 0.00153877 0.000184663 0 0.00149593 0.000179541 0 0.00151938 0.000182343 0 0.00144451 0.000365574 0 0.00150263 0.000380279 0 0.00146078 0.000369691 0 0.00148369 0.000375485 0 0.00177158 4.3641e-05 0 0.00190518 4.63872e-05 0 0.00180861 4.44569e-05 0 0.00186125 4.55442e-05 0 0.00166472 0.00060682 0 0.00178896 0.000652672 0 0.00169922 0.000619497 0 0.00174817 0.000637557 0 0.00175832 0.000210919 0 0.00188946 0.000225385 0 0.00179473 0.00021507 0 0.0018464 0.000220783 0 0.00171699 0.000434577 0 0.00184472 0.000466571 0 0.00175247 0.000443509 0 0.0018028 0.00045612 0 0.00165209 4.07685e-05 0 0.00175293 4.32148e-05 0 0.00168016 4.14662e-05 0 0.00171986 4.24352e-05 0 0.00155293 0.000566006 0 0.00164732 0.000600444 0 0.00157924 0.000575585 0 0.00161642 0.000589143 0 0.0016405 0.000196905 0 0.00173997 0.00020879 0 0.00166822 0.000200257 0 0.00170739 0.000204951 0 0.00160199 0.000405453 0 0.0016991 0.000430062 0 0.00162907 0.000412325 0 0.00166731 0.000422021 0 0.000968475 0.00102611 0 0.000981683 0.00104012 0 0.00097232 0.00103019 0 0.000977532 0.00103572 0 0.000555399 0.00129728 0 0.000562962 0.00131497 0 0.0005576 0.00130243 0 0.000560584 0.00130941 0 0.000852564 0.00112431 0 0.000864184 0.00113966 0 0.000855945 0.00112878 0 0.000860532 0.00113484 0 0.000688275 0.00123183 0 0.000697649 0.00124864 0 0.000691003 0.00123672 0 0.000694702 0.00124336 0 0.000954874 0.00101167 0 0.000966479 0.00102399 0 0.000958249 0.00101525 0 0.000962829 0.00102011 0 0.000547616 0.00127905 0 0.000554257 0.0012946 0 0.000549547 0.00128357 0 0.000552168 0.00128971 0 0.000840598 0.0011085 0 0.000850807 0.00112199 0 0.000843567 0.00111243 0 0.000847596 0.00111775 0 0.000678625 0.00121452 0 0.000686858 0.00122929 0 0.000681019 0.00121882 0 0.000684268 0.00122465 0 0.000923515 0.000978399 0 0.000931222 0.000986575 0 0.000925747 0.000980766 0 0.000928789 0.000983993 0 0.000529678 0.00123699 0 0.00053408 0.00124733 0 0.000530952 0.00123998 0 0.000532689 0.00124406 0 0.000813007 0.00107205 0 0.000819787 0.00108101 0 0.000814971 0.00107464 0 0.000817646 0.00107818 0 0.000656372 0.00117458 0 0.000661837 0.0011844 0 0.000657954 0.00117743 0 0.000660111 0.0011813 0 0.000915713 0.00097012 0 0.000922361 0.000977174 0 0.000917633 0.000972158 0 0.000920257 0.000974942 0 0.000525225 0.00122652 0 0.000529018 0.00123544 0 0.00052632 0.0012291 0 0.000527818 0.00123262 0 0.000806144 0.00106298 0 0.000811991 0.00107071 0 0.000807833 0.00106521 0 0.000810141 0.00106826 0 0.000650842 0.00116465 0 0.000655554 0.00117311 0 0.000652203 0.00116709 0 0.000654062 0.00117043 0 0.00116981 0.00123962 0 0.00120668 0.00127863 0 0.00118052 0.00125095 0 0.00119507 0.00126635 0 0.000670594 0.00156696 0 0.0006916 0.00161631 0 0.000676696 0.00158129 0 0.000684984 0.00160076 0 0.00102963 0.00135811 0 0.00106201 0.00140085 0 0.00103903 0.00137053 0 0.00105181 0.00138739 0 0.000831068 0.00148786 0 0.000857125 0.0015347 0 0.000838637 0.00150146 0 0.000848919 0.00151995 0 0.00113201 0.00119956 0 0.00116425 0.00123373 0 0.00114138 0.0012095 0 0.0011541 0.00122298 0 0.000649029 0.00151638 0 0.000667428 0.00155952 0 0.000654381 0.00152892 0 0.000661641 0.00154594 0 0.000996417 0.00131426 0 0.00102475 0.00135167 0 0.00100465 0.00132514 0 0.00101583 0.0013399 0 0.000804326 0.00143986 0 0.00082714 0.00148081 0 0.000810961 0.00145176 0 0.000819963 0.00146792 0 0.00104409 0.00110632 0 0.001066 0.00112954 0 0.00105047 0.00111308 0 0.00105912 0.00112224 0 0.000598698 0.00139859 0 0.000611231 0.00142793 0 0.000602347 0.00140713 0 0.000607293 0.00141871 0 0.000919089 0.00121215 0 0.00093836 0.00123759 0 0.000924702 0.00121956 0 0.000932307 0.0012296 0 0.000741946 0.00132803 0 0.000757485 0.00135589 0 0.00074647 0.00133615 0 0.000752603 0.00134714 0 0.00102146 0.00108233 0 0.00104077 0.0011028 0 0.00102708 0.00108829 0 0.00103471 0.00109637 0 0.000585756 0.00136829 0 0.000596802 0.00139415 0 0.000588974 0.00137582 0 0.000593333 0.00138603 0 0.000899185 0.00118589 0 0.000916173 0.00120831 0 0.000904132 0.00119242 0 0.000910836 0.00120126 0 0.000725899 0.00129927 0 0.000739595 0.00132382 0 0.000729888 0.00130642 0 0.000735293 0.00131611 0 0.000119745 0.00142906 0 0.000121567 0.00145086 0 0.000120275 0.0014354 0 0.000120995 0.00144401 0 8.80961e-06 0.00143406 0 8.94343e-06 0.00145593 0 8.84858e-06 0.00144042 0 8.90139e-06 0.00144906 0 8.58711e-05 0.0014315 0 8.71776e-05 0.00145334 0 8.62514e-05 0.00143786 0 8.67671e-05 0.00144648 0 4.20618e-05 0.00143346 0 4.27013e-05 0.00145533 0 4.2248e-05 0.00143983 0 4.25004e-05 0.00144846 0 0.000251624 0.00141178 0 0.000255453 0.00143332 0 0.000252739 0.00141805 0 0.00025425 0.00142655 0 0.000137893 0.00142742 0 0.000139991 0.00144919 0 0.000138504 0.00143376 0 0.000139332 0.00144235 0 0.000217026 0.00141752 0 0.000220329 0.00143915 0 0.000217988 0.00142382 0 0.000219291 0.00143236 0 0.000172108 0.00142369 0 0.000174728 0.00144541 0 0.000172871 0.00143001 0 0.000173905 0.00143858 0 0.000256111 0.00143702 0 0.000260457 0.00146146 0 0.000257376 0.00144414 0 0.000259091 0.00145378 0 0.000140352 0.00145293 0 0.000142732 0.00147764 0 0.000141045 0.00146013 0 0.000141985 0.00146988 0 0.000220896 0.00144287 0 0.000224644 0.00146741 0 0.000221987 0.00145001 0 0.000223467 0.0014597 0 0.000175178 0.00144914 0 0.00017815 0.00147378 0 0.000176043 0.00145631 0 0.000177216 0.00146604 0 0.000113515 0.00135436 0 0.000114589 0.00136726 0 0.000113826 0.0013581 0 0.00011425 0.00136319 0 8.35089e-06 0.0013591 0 8.42981e-06 0.00137204 0 8.37378e-06 0.00136285 0 8.40492e-06 0.00136796 0 8.14036e-05 0.00135668 0 8.21737e-05 0.0013696 0 8.16269e-05 0.00136042 0 8.19308e-05 0.00136552 0 3.98728e-05 0.00135854 0 4.02498e-05 0.00137147 0 3.99821e-05 0.00136229 0 4.01309e-05 0.0013674 0 0.000238518 0.00133797 0 0.000240775 0.00135071 0 0.000239172 0.00134166 0 0.000240063 0.00134669 0 0.000130718 0.0013528 0 0.000131955 0.00136569 0 0.000131076 0.00135654 0 0.000131565 0.00136163 0 0.000205725 0.00134342 0 0.000207672 0.00135621 0 0.00020629 0.00134713 0 0.000207058 0.00135218 0 0.00016315 0.00134927 0 0.000164694 0.00136212 0 0.000163598 0.00135299 0 0.000164207 0.00135807 0 0.000241165 0.00135291 0 0.000243755 0.00136751 0 0.000241917 0.00135715 0 0.000242939 0.00136291 0 0.000132168 0.00136791 0 0.000133587 0.00138267 0 0.00013258 0.0013722 0 0.00013314 0.00137802 0 0.000208008 0.00135842 0 0.000210242 0.00137308 0 0.000208657 0.00136268 0 0.000209538 0.00136846 0 0.000164961 0.00136433 0 0.000166732 0.00137906 0 0.000165475 0.00136861 0 0.000166174 0.00137442 0 0.000147587 0.00176168 0 0.000152774 0.00182301 0 0.000149091 0.00177946 0 0.000151138 0.00180366 0 1.08635e-05 0.00176786 0 1.12416e-05 0.00182943 0 1.09731e-05 0.00178572 0 1.11221e-05 0.00181001 0 0.000105841 0.00176469 0 0.000109554 0.00182613 0 0.000106917 0.00178251 0 0.000108383 0.00180675 0 5.18539e-05 0.00176713 0 5.3666e-05 0.00182867 0 5.23793e-05 0.00178498 0 5.30941e-05 0.00180926 0 0.000310211 0.0017407 0 0.000321106 0.00180131 0 0.000313362 0.00175829 0 0.00031766 0.0017822 0 0.000169959 0.00175967 0 0.000175936 0.00182094 0 0.00017169 0.00177744 0 0.000174049 0.00180161 0 0.000267548 0.00174769 0 0.000276956 0.00180853 0 0.00027027 0.00176534 0 0.000273981 0.00178935 0 0.000212151 0.00175515 0 0.000219615 0.00181626 0 0.000214312 0.00177287 0 0.000217257 0.00179698 0 0.000323 0.00181178 0 0.000335763 0.0018815 0 0.000326669 0.00183198 0 0.000331701 0.00185948 0 0.00017697 0.00183153 0 0.000183839 0.00190227 0 0.000178964 0.001852 0 0.000181676 0.0018799 0 0.000278591 0.00181905 0 0.000289581 0.00188915 0 0.000281754 0.00183934 0 0.000286087 0.001867 0 0.000220908 0.00182682 0 0.00022956 0.00189735 0 0.000223408 0.00184723 0 0.000226821 0.00187505 0 0.000130158 0.00155372 0 0.000133178 0.00158984 0 0.000131037 0.00156423 0 0.000132229 0.00157849 0 9.57653e-06 0.00155914 0 9.79869e-06 0.00159538 0 9.64115e-06 0.00156969 0 9.7288e-06 0.00158399 0 9.3338e-05 0.00155637 0 9.5503e-05 0.00159254 0 9.3968e-05 0.0015669 0 9.48224e-05 0.00158118 0 4.57208e-05 0.0015585 0 4.67813e-05 0.00159472 0 4.60294e-05 0.00156904 0 4.64478e-05 0.00158334 0 0.000273545 0.00153499 0 0.000279894 0.0015707 0 0.000275394 0.00154538 0 0.000277899 0.00155948 0 0.000149887 0.00155194 0 0.000153364 0.00158802 0 0.000150899 0.00156244 0 0.000152271 0.00157668 0 0.000235927 0.00154122 0 0.000241402 0.00157707 0 0.000237521 0.00155166 0 0.000239681 0.0015658 0 0.000187087 0.0015479 0 0.000191428 0.0015839 0 0.000188351 0.00155838 0 0.000190064 0.00157258 0 0.000280985 0.00157684 0 0.000288208 0.00161745 0 0.000283085 0.00158865 0 0.000285935 0.00160467 0 0.000153961 0.00159422 0 0.000157915 0.00163524 0 0.000155112 0.00160615 0 0.000156672 0.00162234 0 0.000242342 0.00158323 0 0.00024857 0.00162399 0 0.000244153 0.00159509 0 0.000246611 0.00161118 0 0.000192173 0.00159008 0 0.000197109 0.001631 0 0.000193609 0.00160199 0 0.000195557 0.00161813 0 0.000116219 0.00138681 0 0.000117625 0.00140367 0 0.000116628 0.00139171 0 0.000117182 0.00139836 0 8.54974e-06 0.00139166 0 8.65358e-06 0.00140858 0 8.57993e-06 0.00139658 0 8.62092e-06 0.00140325 0 8.33424e-05 0.00138918 0 8.43509e-05 0.00140607 0 8.36356e-05 0.00139409 0 8.40336e-05 0.00140076 0 4.08223e-05 0.00139108 0 4.13171e-05 0.001408 0 4.09662e-05 0.001396 0 4.11614e-05 0.00140268 0 0.000244202 0.00137002 0 0.000247164 0.00138669 0 0.000245063 0.00137487 0 0.000246232 0.00138145 0 0.000133831 0.00138521 0 0.000135451 0.00140206 0 0.000134302 0.00139011 0 0.000134941 0.00139676 0 0.000210627 0.0013756 0 0.00021318 0.00139233 0 0.000211369 0.00138047 0 0.000212377 0.00138707 0 0.000167037 0.00138159 0 0.00016906 0.00139839 0 0.000167625 0.00138648 0 0.000168423 0.00139311 0 0.000247673 0.00138955 0 0.000251045 0.00140852 0 0.000248655 0.00139507 0 0.000249985 0.00140256 0 0.000135729 0.00140495 0 0.000137575 0.00142412 0 0.000136266 0.00141053 0 0.000136995 0.0014181 0 0.000213619 0.00139521 0 0.000216527 0.00141425 0 0.000214465 0.00140075 0 0.000215613 0.00140827 0 0.000169408 0.00140128 0 0.000171712 0.0014204 0 0.000170078 0.00140685 0 0.000170988 0.00141439 0 0.000111481 0.00132988 0 0.000112283 0.00133954 0 0.000111713 0.00133267 0 0.000112029 0.00133649 0 8.20194e-06 0.00133454 0 8.26037e-06 0.00134423 0 8.21868e-06 0.00133734 0 8.24176e-06 0.00134116 0 7.99457e-05 0.00133216 0 8.05204e-05 0.00134183 0 8.01116e-05 0.00133495 0 8.03384e-05 0.00133877 0 3.916e-05 0.00133398 0 3.94404e-05 0.00134368 0 3.92406e-05 0.00133678 0 3.93513e-05 0.00134061 0 0.00023425 0.00131378 0 0.000235931 0.00132333 0 0.000234735 0.00131654 0 0.000235398 0.0013203 0 0.000128376 0.00132835 0 0.0001293 0.001338 0 0.000128643 0.00133114 0 0.000129007 0.00133495 0 0.000202043 0.00131913 0 0.000203494 0.00132872 0 0.000202462 0.0013219 0 0.000203034 0.00132568 0 0.000160228 0.00132488 0 0.000161381 0.0013345 0 0.000160561 0.00132766 0 0.000161016 0.00133146 0 0.000236223 0.00132498 0 0.000238179 0.00133605 0 0.000236789 0.00132819 0 0.000237561 0.00133256 0 0.00012946 0.00133968 0 0.000130532 0.00135087 0 0.00012977 0.00134292 0 0.000130193 0.00134733 0 0.000203746 0.00133038 0 0.000205433 0.00134149 0 0.000204234 0.0013336 0 0.0002049 0.00133799 0 0.000161581 0.00133618 0 0.000162919 0.00134733 0 0.000161968 0.00133941 0 0.000162496 0.00134381 0 0.00013772 0.00164416 0 0.000141634 0.00169094 0 0.000138857 0.00165776 0 0.000140401 0.00167622 0 1.01345e-05 0.0016499 0 1.04248e-05 0.00169685 0 1.02188e-05 0.00166355 0 1.03334e-05 0.00168207 0 9.87622e-05 0.00164696 0 0.000101571 0.00169382 0 9.95781e-05 0.00166059 0 0.000100686 0.00167908 0 4.83809e-05 0.00164922 0 4.97613e-05 0.00169616 0 4.87818e-05 0.00166286 0 4.93265e-05 0.00168139 0 0.000289452 0.00162443 0 0.000297706 0.00167072 0 0.00029185 0.00163789 0 0.000295107 0.00165616 0 0.000158594 0.00164229 0 0.000163103 0.00168901 0 0.000159904 0.00165587 0 0.000161683 0.00167431 0 0.000249643 0.001631 0 0.000256758 0.00167746 0 0.000251709 0.00164451 0 0.000254517 0.00166284 0 0.000197959 0.00163804 0 0.000203593 0.00168466 0 0.000199595 0.00165159 0 0.000201818 0.00166999 0 0.000299129 0.0016787 0 0.000308578 0.00173158 0 0.000301871 0.00169406 0 0.0003056 0.00171492 0 0.000163881 0.00169706 0 0.000169062 0.00175046 0 0.000165383 0.00171257 0 0.000167427 0.00173364 0 0.000257984 0.00168546 0 0.000266139 0.00173853 0 0.00026035 0.00170087 0 0.000263567 0.00172182 0 0.000204565 0.00169269 0 0.000211032 0.00174596 0 0.00020644 0.00170816 0 0.000208991 0.00172918 0 0.000124302 0.00148358 0 0.000126643 0.00151162 0 0.000124984 0.00149175 0 0.000125907 0.00150281 0 9.14459e-06 0.00148876 0 9.31754e-06 0.00151691 0 9.19495e-06 0.00149696 0 9.26322e-06 0.00150807 0 8.91384e-05 0.00148611 0 9.08172e-05 0.00151421 0 8.96274e-05 0.00149429 0 9.02899e-05 0.00150538 0 4.36617e-05 0.00148815 0 4.44854e-05 0.00151628 0 4.39016e-05 0.00149634 0 4.42267e-05 0.00150745 0 0.000261204 0.00146566 0 0.000266141 0.00149338 0 0.000262642 0.00147373 0 0.00026459 0.00148467 0 0.000143141 0.00148188 0 0.000145837 0.00150989 0 0.000143926 0.00149004 0 0.00014499 0.00150109 0 0.000225288 0.00147162 0 0.000229543 0.00149945 0 0.000226527 0.00147972 0 0.000228206 0.00149071 0 0.00017866 0.00147801 0 0.000182029 0.00150596 0 0.000179641 0.00148615 0 0.00018097 0.00149718 0 0.000266988 0.00149814 0 0.000272585 0.00152959 0 0.000268618 0.0015073 0 0.000270827 0.00151971 0 0.0001463 0.0015147 0 0.000149361 0.00154648 0 0.000147191 0.00152396 0 0.000148399 0.0015365 0 0.000230273 0.00150423 0 0.000235098 0.0015358 0 0.000231679 0.00151342 0 0.000233583 0.00152588 0 0.000182607 0.00151075 0 0.00018643 0.00154246 0 0.00018372 0.00151999 0 0.000185229 0.0015325 0 </DataArray> 
</PointData> 
<Points> 
<DataArray type="Float32" NumberOfComponents="3"> 
0.130154 1.55272 0 0.125658 1.49908 0 0.128794 1.53649 0 0.127019 1.51531 0 0.00957459 1.55813 0 0.00924388 1.50431 0 0.00947452 1.54185 0 0.00934395 1.5206 0 0.0933351 1.55536 0 0.0901112 1.50164 0 0.0923596 1.53911 0 0.0910868 1.5179 0 0.0457164 1.55749 0 0.0441373 1.50369 0 0.0452385 1.54121 0 0.0446151 1.51997 0 1.48581 0.636286 0 1.38686 0.593912 0 1.45587 0.623464 0 1.4168 0.606734 0 1.1753 1.10958 0 1.09703 1.03568 0 1.15162 1.08722 0 1.12072 1.05804 0 1.41092 0.788543 0 1.31696 0.736029 0 1.38249 0.772652 0 1.34539 0.751919 0 1.28779 0.97678 0 1.20202 0.91173 0 1.26183 0.957096 0 1.22798 0.931414 0 1.60072 0.685494 0 1.50177 0.64312 0 1.57078 0.672672 0 1.53171 0.655942 0 1.2662 1.19539 0 1.18792 1.12149 0 1.24251 1.17303 0 1.21161 1.14385 0 1.52003 0.849526 0 1.42607 0.797011 0 1.4916 0.833635 0 1.4545 0.812902 0 1.38738 1.05232 0 1.30162 0.98727 0 1.36143 1.03264 0 1.32757 1.00695 0 1.02618 0.439455 0 0.927233 0.39708 0 0.996241 0.426632 0 0.957175 0.409902 0 0.811729 0.766334 0 0.733458 0.69244 0 0.788044 0.743974 0 0.757142 0.7148 0 0.974459 0.544612 0 0.880496 0.492097 0 0.946026 0.528721 0 0.908929 0.507988 0 0.889417 0.674619 0 0.803654 0.609568 0 0.863465 0.654934 0 0.829606 0.629252 0 1.14109 0.488663 0 1.04214 0.446288 0 1.11115 0.47584 0 1.07208 0.45911 0 0.902622 0.852145 0 0.824351 0.778251 0 0.878938 0.829785 0 0.848036 0.800611 0 1.08357 0.605594 0 0.989611 0.55308 0 1.05514 0.589704 0 1.01804 0.568971 0 0.989009 0.750159 0 0.903247 0.685108 0 0.963058 0.730475 0 0.929198 0.704793 0 0.151037 1.80184 0 0.146541 1.74821 0 0.149676 1.78561 0 0.147901 1.76444 0 0.0111108 1.80813 0 0.0107801 1.75431 0 0.0110107 1.79184 0 0.0108802 1.77059 0 0.10831 1.80491 0 0.105086 1.75119 0 0.107335 1.78866 0 0.106062 1.76745 0 0.0530514 1.80738 0 0.0514723 1.75358 0 0.0525735 1.7911 0 0.0519501 1.76986 0 0.0883887 1.05446 0 0.083893 1.00083 0 0.0870283 1.03823 0 0.0852534 1.01706 0 0.00650219 1.05814 0 0.00617147 1.00432 0 0.00640212 1.04185 0 0.00627155 1.02061 0 0.0633847 1.05626 0 0.0601608 1.00254 0 0.0624092 1.04 0 0.0611363 1.01879 0 0.0310464 1.0577 0 0.0294673 1.00391 0 0.0305686 1.04143 0 0.0299451 1.02019 0 1.24127 1.3148 0 1.20432 1.27566 0 1.23009 1.30296 0 1.2155 1.2875 0 0.711807 1.66216 0 0.690619 1.61268 0 0.705395 1.64719 0 0.69703 1.62766 0 1.09271 1.44063 0 1.06019 1.39775 0 1.08287 1.42766 0 1.07003 1.41073 0 0.882134 1.57838 0 0.855877 1.5314 0 0.874189 1.56416 0 0.863823 1.54561 0 1.28418 1.36024 0 1.24723 1.32111 0 1.273 1.3484 0 1.25841 1.33295 0 0.736411 1.71961 0 0.715223 1.67014 0 0.729999 1.70464 0 0.721634 1.68511 0 1.13048 1.49043 0 1.09796 1.44755 0 1.12064 1.47745 0 1.1078 1.46052 0 0.912626 1.63294 0 0.886369 1.58596 0 0.90468 1.61872 0 0.894314 1.60017 0 1.06965 1.13301 0 1.0327 1.09388 0 1.05847 1.12117 0 1.04388 1.10572 0 0.613391 1.43235 0 0.592203 1.38287 0 0.60698 1.41738 0 0.598615 1.39784 0 0.941632 1.24145 0 0.909107 1.19857 0 0.93179 1.22847 0 0.918949 1.21154 0 0.760169 1.36015 0 0.733911 1.31317 0 0.752223 1.34593 0 0.741857 1.32738 0 1.11255 1.17846 0 1.07561 1.13932 0 1.10137 1.16662 0 1.08679 1.15116 0 0.637995 1.4898 0 0.616807 1.44032 0 0.631583 1.47483 0 0.623219 1.4553 0 0.979403 1.29124 0 0.946877 1.24836 0 0.969561 1.27827 0 0.956719 1.26134 0 0.79066 1.41471 0 0.764403 1.36773 0 0.782715 1.40049 0 0.772348 1.38194 0 0.109271 1.30359 0 0.104776 1.24996 0 0.107911 1.28736 0 0.106136 1.26619 0 0.00803839 1.30814 0 0.00770767 1.25432 0 0.00793832 1.29185 0 0.00780775 1.2706 0 0.0783599 1.30581 0 0.075136 1.25209 0 0.0773844 1.28955 0 0.0761116 1.26834 0 0.0383814 1.3076 0 0.0368023 1.2538 0 0.0379035 1.29132 0 0.0372801 1.27008 0 0.898029 0.951224 0 0.861082 0.912089 0 0.886849 0.939382 0 0.872262 0.923931 0 0.514975 1.20253 0 0.493788 1.15306 0 0.508564 1.18756 0 0.500199 1.16803 0 0.790552 1.04226 0 0.758026 0.999382 0 0.78071 1.02929 0 0.767868 1.01236 0 0.638203 1.14192 0 0.611946 1.09494 0 0.630258 1.1277 0 0.619891 1.10915 0 0.940934 0.996671 0 0.903987 0.957535 0 0.929754 0.984829 0 0.915167 0.969378 0 0.539579 1.25999 0 0.518392 1.21051 0 0.533168 1.24501 0 0.524803 1.22548 0 0.828322 1.09206 0 0.795797 1.04918 0 0.81848 1.07908 0 0.805639 1.06215 0 0.668694 1.19648 0 0.642437 1.1495 0 0.660749 1.18226 0 0.650383 1.16371 0 0.726408 0.769438 0 0.689461 0.730302 0 0.715228 0.757595 0 0.700641 0.742144 0 0.416559 0.972719 0 0.395372 0.923244 0 0.410148 0.957748 0 0.401783 0.938215 0 0.639471 0.843078 0 0.606946 0.800197 0 0.629629 0.830102 0 0.616788 0.813173 0 0.516237 0.92369 0 0.48998 0.876708 0 0.508292 0.909473 0 0.497925 0.890925 0 0.769313 0.814884 0 0.732366 0.775749 0 0.758133 0.803042 0 0.743546 0.787591 0 0.441163 1.03017 0 0.419976 0.980697 0 0.434752 1.0152 0 0.426387 0.995668 0 0.677241 0.892874 0 0.644716 0.849993 0 0.667399 0.879899 0 0.654558 0.862969 0 0.546729 0.978247 0 0.520471 0.931266 0 0.538783 0.964031 0 0.528417 0.945482 0 0.140595 1.67728 0 0.1361 1.62365 0 0.139235 1.66105 0 0.13746 1.63987 0 0.0103427 1.68313 0 0.010012 1.62931 0 0.0102426 1.66684 0 0.0101121 1.64559 0 0.100823 1.68014 0 0.0975988 1.62641 0 0.0998472 1.66388 0 0.0985744 1.64267 0 0.0493839 1.68244 0 0.0478048 1.62864 0 0.048906 1.66616 0 0.0482826 1.64492 0 0.597957 1.57336 0 0.578836 1.52305 0 0.592171 1.55814 0 0.584622 1.53828 0 0.327995 1.65089 0 0.317507 1.5981 0 0.324821 1.63492 0 0.320681 1.61408 0 0.516487 1.60196 0 0.499972 1.55073 0 0.51149 1.58646 0 0.50497 1.56623 0 0.409735 1.63253 0 0.396633 1.58033 0 0.40577 1.61673 0 0.400598 1.59612 0 0.62016 1.63179 0 0.60104 1.58148 0 0.614375 1.61656 0 0.606826 1.5967 0 0.340174 1.7122 0 0.329686 1.65941 0 0.337001 1.69622 0 0.33286 1.67538 0 0.535666 1.66144 0 0.519151 1.61022 0 0.530668 1.64594 0 0.524148 1.62572 0 0.42495 1.69315 0 0.411848 1.64095 0 0.420985 1.67735 0 0.415812 1.65674 0 0.553549 1.45652 0 0.534429 1.40621 0 0.547764 1.4413 0 0.540215 1.42143 0 0.303636 1.52829 0 0.293148 1.4755 0 0.300463 1.51232 0 0.296322 1.49147 0 0.47813 1.48299 0 0.461615 1.43176 0 0.473133 1.46749 0 0.466613 1.44726 0 0.379306 1.51129 0 0.366204 1.45909 0 0.375342 1.49549 0 0.370169 1.47488 0 0.575753 1.51494 0 0.556633 1.46463 0 0.569967 1.49972 0 0.562418 1.47986 0 0.315816 1.58959 0 0.305328 1.5368 0 0.312642 1.57362 0 0.308501 1.55278 0 0.497309 1.54247 0 0.480794 1.49125 0 0.492311 1.52697 0 0.485791 1.50675 0 0.394521 1.57191 0 0.381419 1.51971 0 0.390556 1.55611 0 0.385383 1.5355 0 0.161478 1.9264 0 0.156982 1.87277 0 0.160117 1.91018 0 0.158343 1.889 0 0.0118789 1.93312 0 0.0115482 1.8793 0 0.0117788 1.91684 0 0.0116483 1.89559 0 0.115798 1.92969 0 0.112574 1.87596 0 0.114822 1.91343 0 0.11355 1.89222 0 0.0567188 1.93233 0 0.0551397 1.87853 0 0.056241 1.91605 0 0.0556176 1.89481 0 0.686771 1.80706 0 0.667651 1.75675 0 0.680985 1.79183 0 0.673437 1.77197 0 0.376712 1.8961 0 0.366224 1.84331 0 0.373538 1.88013 0 0.369398 1.85929 0 0.593201 1.8399 0 0.576686 1.78867 0 0.588204 1.8244 0 0.581684 1.80417 0 0.470593 1.87501 0 0.457491 1.82281 0 0.466628 1.85921 0 0.461456 1.8386 0 0.708975 1.86548 0 0.689855 1.81517 0 0.703189 1.85026 0 0.69564 1.83039 0 0.388891 1.9574 0 0.378403 1.90461 0 0.385718 1.94143 0 0.381577 1.92059 0 0.61238 1.89938 0 0.595865 1.84816 0 0.607382 1.88388 0 0.600862 1.86366 0 0.485808 1.93563 0 0.472706 1.88343 0 0.481843 1.91983 0 0.47667 1.89922 0 0.642364 1.69021 0 0.623244 1.6399 0 0.636578 1.67499 0 0.629029 1.65512 0 0.352354 1.7735 0 0.341866 1.72071 0 0.34918 1.75752 0 0.345039 1.73668 0 0.554844 1.72093 0 0.538329 1.6697 0 0.549847 1.70543 0 0.543327 1.6852 0 0.440164 1.75377 0 0.427062 1.70157 0 0.436199 1.73797 0 0.431027 1.71736 0 0.664568 1.74863 0 0.645447 1.69832 0 0.658782 1.73341 0 0.651233 1.71355 0 0.364533 1.8348 0 0.354045 1.78201 0 0.361359 1.81882 0 0.357218 1.79798 0 0.574023 1.78041 0 0.557508 1.72919 0 0.569025 1.76491 0 0.562505 1.74469 0 0.455379 1.81439 0 0.442277 1.76219 0 0.451414 1.79859 0 0.446241 1.77798 0 0.09883 1.17903 0 0.0943343 1.12539 0 0.0974696 1.1628 0 0.0956947 1.14162 0 0.00727029 1.18314 0 0.00693957 1.12932 0 0.00717022 1.16685 0 0.00703965 1.1456 0 0.0708723 1.18104 0 0.0676484 1.12731 0 0.0698968 1.16478 0 0.068624 1.14357 0 0.0347139 1.18265 0 0.0331348 1.12885 0 0.034236 1.16637 0 0.0336126 1.14513 0 0.420328 1.10598 0 0.401207 1.05567 0 0.414542 1.09076 0 0.406993 1.07089 0 0.230561 1.16048 0 0.220073 1.10769 0 0.227387 1.1445 0 0.223246 1.12366 0 0.36306 1.12608 0 0.346544 1.07486 0 0.358062 1.11058 0 0.351542 1.09036 0 0.288019 1.14757 0 0.274917 1.09537 0 0.284055 1.13177 0 0.278882 1.11116 0 0.442531 1.1644 0 0.423411 1.11409 0 0.436745 1.14918 0 0.429197 1.12932 0 0.24274 1.22178 0 0.232252 1.16899 0 0.239566 1.20581 0 0.235426 1.18497 0 0.382238 1.18556 0 0.365723 1.13434 0 0.377241 1.17006 0 0.37072 1.14984 0 0.303234 1.20819 0 0.290132 1.15599 0 0.299269 1.19239 0 0.294096 1.17178 0 0.37592 0.989135 0 0.3568 0.938825 0 0.370134 0.973911 0 0.362586 0.954048 0 0.206202 1.03787 0 0.195714 0.985086 0 0.203029 1.0219 0 0.198888 1.00106 0 0.324703 1.00711 0 0.308187 0.955886 0 0.319705 0.99161 0 0.313185 0.971387 0 0.25759 1.02633 0 0.244488 0.974127 0 0.253626 1.01053 0 0.248453 0.989923 0 0.398124 1.04756 0 0.379004 0.997248 0 0.392338 1.03233 0 0.384789 1.01247 0 0.218381 1.09918 0 0.207893 1.04639 0 0.215208 1.0832 0 0.211067 1.06236 0 0.343881 1.0666 0 0.327366 1.01537 0 0.338884 1.0511 0 0.332363 1.03087 0 0.272805 1.08695 0 0.259703 1.03475 0 0.26884 1.07115 0 0.263667 1.05054 0 0.119713 1.42815 0 0.115217 1.37452 0 0.118352 1.41192 0 0.116577 1.39075 0 0.00880649 1.43313 0 0.00847577 1.37931 0 0.00870642 1.41685 0 0.00857585 1.3956 0 0.0858475 1.43059 0 0.0826236 1.37686 0 0.084872 1.41433 0 0.0835992 1.39312 0 0.0420489 1.43254 0 0.0404698 1.37875 0 0.041571 1.41626 0 0.0409476 1.39502 0 0.509142 1.33967 0 0.490022 1.28936 0 0.503356 1.32445 0 0.495808 1.30459 0 0.279278 1.40569 0 0.26879 1.3529 0 0.276104 1.38971 0 0.271963 1.36887 0 0.439773 1.36402 0 0.423258 1.31279 0 0.434776 1.34852 0 0.428256 1.3283 0 0.348877 1.39005 0 0.335775 1.33785 0 0.344913 1.37425 0 0.33974 1.35364 0 0.531346 1.3981 0 0.512225 1.34779 0 0.52556 1.38287 0 0.518011 1.36301 0 0.291457 1.46699 0 0.280969 1.4142 0 0.288283 1.45101 0 0.284143 1.43017 0 0.458952 1.4235 0 0.442437 1.37228 0 0.453955 1.408 0 0.447434 1.38778 0 0.364092 1.45067 0 0.35099 1.39847 0 0.360127 1.43487 0 0.354954 1.41426 0 0.464735 1.22283 0 0.445614 1.17252 0 0.458949 1.2076 0 0.4514 1.18774 0 0.254919 1.28308 0 0.244431 1.23029 0 0.251746 1.26711 0 0.247605 1.24627 0 0.401417 1.24505 0 0.384901 1.19383 0 0.396419 1.22955 0 0.389899 1.20933 0 0.318448 1.26881 0 0.305346 1.21661 0 0.314484 1.25301 0 0.309311 1.2324 0 0.486938 1.28125 0 0.467818 1.23094 0 0.481153 1.26603 0 0.473604 1.24616 0 0.267099 1.34438 0 0.256611 1.29159 0 0.263925 1.32841 0 0.259784 1.30757 0 0.420595 1.30453 0 0.40408 1.25331 0 0.415598 1.28903 0 0.409077 1.26881 0 0.333663 1.32943 0 0.320561 1.27723 0 0.329698 1.31363 0 0.324525 1.29302 0 1.71562 0.734702 0 1.61667 0.692328 0 1.68568 0.72188 0 1.64662 0.70515 0 1.35709 1.2812 0 1.27882 1.2073 0 1.3334 1.25884 0 1.3025 1.22966 0 1.62915 0.910509 0 1.53519 0.857994 0 1.60072 0.894618 0 1.56362 0.873885 0 1.48697 1.12786 0 1.40121 1.06281 0 1.46102 1.10818 0 1.42716 1.08249 0 1.83053 0.78391 0 1.73158 0.741536 0 1.80059 0.771088 0 1.76152 0.754358 0 1.44798 1.36701 0 1.36971 1.29311 0 1.4243 1.34465 0 1.3934 1.31547 0 1.73826 0.971492 0 1.6443 0.918977 0 1.70983 0.955601 0 1.67273 0.934868 0 1.58656 1.2034 0 1.5008 1.13835 0 1.56061 1.18372 0 1.52675 1.15803 0 1.86575 0.046042 0 1.75814 0.0433864 0 1.83319 0.0452384 0 1.79071 0.04419 0 1.75351 0.639014 0 1.65238 0.602159 0 1.72291 0.627862 0 1.68298 0.613311 0 1.85303 0.222352 0 1.74615 0.209528 0 1.82069 0.218472 0 1.77849 0.213409 0 1.8093 0.457795 0 1.70495 0.431391 0 1.77773 0.449805 0 1.73653 0.439381 0 1.99071 0.0491257 0 1.88311 0.0464702 0 1.95815 0.0483221 0 1.91567 0.0472737 0 1.87096 0.681813 0 1.76982 0.644958 0 1.84036 0.670661 0 1.80043 0.65611 0 1.97714 0.237245 0 1.87026 0.22442 0 1.9448 0.233364 0 1.9026 0.228301 0 1.93048 0.488457 0 1.82613 0.462053 0 1.89891 0.480467 0 1.85771 0.470043 0 1.61583 0.0398745 0 1.50822 0.037219 0 1.58327 0.0390709 0 1.54078 0.0380225 0 1.51863 0.553416 0 1.41749 0.51656 0 1.48802 0.542264 0 1.44809 0.527713 0 1.60481 0.192567 0 1.49793 0.179743 0 1.57247 0.188687 0 1.53027 0.183624 0 1.56694 0.396472 0 1.46259 0.370068 0 1.53536 0.388482 0 1.49416 0.378058 0 1.74079 0.0429582 0 1.63318 0.0403027 0 1.70823 0.0421547 0 1.66574 0.0411063 0 1.63607 0.596215 0 1.53493 0.559359 0 1.60547 0.585063 0 1.56554 0.570512 0 1.72892 0.20746 0 1.62204 0.194636 0 1.69658 0.203579 0 1.65438 0.198516 0 1.68812 0.427133 0 1.58377 0.40073 0 1.65654 0.419144 0 1.61535 0.408719 0 1.256 0.537871 0 1.15705 0.495496 0 1.22605 0.525048 0 1.18699 0.508318 0 0.993516 0.937955 0 0.915244 0.864061 0 0.969831 0.915595 0 0.938929 0.886421 0 1.19269 0.666577 0 1.09873 0.614063 0 1.16426 0.650687 0 1.12716 0.629954 0 1.0886 0.825699 0 1.00284 0.760649 0 1.06265 0.806015 0 1.02879 0.780333 0 1.3709 0.587078 0 1.27195 0.544704 0 1.34096 0.574256 0 1.3019 0.557526 0 1.08441 1.02377 0 1.00614 0.949871 0 1.06072 1.00141 0 1.02982 0.972231 0 1.3018 0.72756 0 1.20784 0.675046 0 1.27337 0.711669 0 1.23627 0.690936 0 1.18819 0.90124 0 1.10243 0.836189 0 1.16224 0.881556 0 1.12838 0.855873 0 1.36591 0.033707 0 1.2583 0.0310515 0 1.33334 0.0329035 0 1.29086 0.031855 0 1.28374 0.467818 0 1.1826 0.430962 0 1.25313 0.456666 0 1.2132 0.442115 0 1.35659 0.162783 0 1.24971 0.149958 0 1.32425 0.158902 0 1.28205 0.153839 0 1.32458 0.335149 0 1.22023 0.308745 0 1.293 0.327159 0 1.2518 0.316735 0 1.49087 0.0367907 0 1.38326 0.0341352 0 1.4583 0.0359872 0 1.41582 0.0349388 0 1.40118 0.510617 0 1.30005 0.473761 0 1.37058 0.499465 0 1.33065 0.484914 0 1.4807 0.177675 0 1.37382 0.164851 0 1.44836 0.173794 0 1.40616 0.168731 0 1.44576 0.36581 0 1.34141 0.339407 0 1.41418 0.357821 0 1.37298 0.347396 0 1.11598 0.0275395 0 1.00837 0.024884 0 1.08342 0.026736 0 1.04093 0.0256876 0 1.04885 0.38222 0 0.947712 0.345364 0 1.01824 0.371067 0 0.978315 0.356517 0 1.10837 0.132998 0 1.00149 0.120173 0 1.07603 0.129117 0 1.03383 0.124054 0 1.08222 0.273825 0 0.977863 0.247422 0 1.05064 0.265836 0 1.00944 0.255411 0 1.24094 0.0306233 0 1.13333 0.0279678 0 1.20838 0.0298197 0 1.1659 0.0287713 0 1.16629 0.425019 0 1.06516 0.388163 0 1.13569 0.413867 0 1.09576 0.399316 0 1.23248 0.14789 0 1.1256 0.135066 0 1.20014 0.14401 0 1.15794 0.138946 0 1.2034 0.304487 0 1.09904 0.278083 0 1.17182 0.296497 0 1.13062 0.286073 0 1.15546 1.2239 0 1.11851 1.18477 0 1.14428 1.21206 0 1.12969 1.19661 0 0.662599 1.54725 0 0.641411 1.49778 0 0.656187 1.53228 0 0.647823 1.51275 0 1.01717 1.34104 0 0.984648 1.29816 0 1.00733 1.32806 0 0.99449 1.31113 0 0.821152 1.46926 0 0.794894 1.42228 0 0.813206 1.45505 0 0.80284 1.4365 0 1.19836 1.26935 0 1.16142 1.23022 0 1.18718 1.25751 0 1.1726 1.24206 0 0.687203 1.60471 0 0.666015 1.55523 0 0.680791 1.58974 0 0.672427 1.5702 0 1.05494 1.39084 0 1.02242 1.34796 0 1.0451 1.37786 0 1.03226 1.36093 0 0.851643 1.52382 0 0.825386 1.47684 0 0.843698 1.50961 0 0.833331 1.49106 0 1.32708 1.40569 0 1.29013 1.36656 0 1.3159 1.39385 0 1.30131 1.3784 0 0.761015 1.77707 0 0.739827 1.72759 0 0.754603 1.7621 0 0.746238 1.74256 0 1.16825 1.54022 0 1.13573 1.49734 0 1.15841 1.52725 0 1.14557 1.51032 0 0.943117 1.68749 0 0.91686 1.64051 0 0.935172 1.67328 0 0.924805 1.65473 0 1.36999 1.45114 0 1.33304 1.412 0 1.35881 1.4393 0 1.34422 1.42384 0 0.785618 1.83452 0 0.764431 1.78505 0 0.779207 1.81955 0 0.770842 1.80002 0 1.20602 1.59002 0 1.1735 1.54714 0 1.19618 1.57705 0 1.18334 1.56012 0 0.973609 1.74205 0 0.947351 1.69507 0 0.965663 1.72784 0 0.955297 1.70929 0 0.812219 0.860331 0 0.775271 0.821195 0 0.801039 0.848489 0 0.786452 0.833038 0 0.465767 1.08763 0 0.44458 1.03815 0 0.459356 1.07265 0 0.450991 1.05312 0 0.715011 0.94267 0 0.682486 0.899789 0 0.705169 0.929695 0 0.692328 0.912765 0 0.57722 1.0328 0 0.550963 0.985823 0 0.569275 1.01859 0 0.558908 1.00004 0 0.855124 0.905778 0 0.818177 0.866642 0 0.843944 0.893935 0 0.829357 0.878484 0 0.490371 1.14508 0 0.469184 1.0956 0 0.48396 1.13011 0 0.475595 1.11058 0 0.752781 0.992467 0 0.720256 0.949585 0 0.742939 0.979491 0 0.730098 0.962561 0 0.607712 1.08736 0 0.581454 1.04038 0 0.599766 1.07315 0 0.5894 1.0546 0 0.983839 1.04212 0 0.946892 1.00298 0 0.972659 1.03028 0 0.958072 1.01482 0 0.564183 1.31744 0 0.542995 1.26796 0 0.557772 1.30247 0 0.549407 1.28294 0 0.866092 1.14186 0 0.833567 1.09897 0 0.85625 1.12888 0 0.843409 1.11195 0 0.699186 1.25103 0 0.672929 1.20405 0 0.69124 1.23682 0 0.680874 1.21827 0 1.02674 1.08756 0 0.989797 1.04843 0 1.01556 1.07572 0 1.00098 1.06027 0 0.588787 1.37489 0 0.567599 1.32542 0 0.582376 1.35992 0 0.574011 1.34039 0 0.903862 1.19165 0 0.871337 1.14877 0 0.89402 1.17868 0 0.881179 1.16175 0 0.729677 1.30559 0 0.70342 1.25861 0 0.721732 1.29138 0 0.711365 1.27283 0 0.135375 1.615 0 0.130879 1.56136 0 0.134014 1.59877 0 0.132239 1.57759 0 0.00995865 1.62063 0 0.00962793 1.56681 0 0.00985857 1.60434 0 0.009728 1.5831 0 0.0970789 1.61775 0 0.093855 1.56403 0 0.0961034 1.60149 0 0.0948306 1.58028 0 0.0475501 1.61996 0 0.045971 1.56617 0 0.0470723 1.60368 0 0.0464488 1.58244 0 0.284455 1.5955 0 0.275009 1.54252 0 0.281597 1.57947 0 0.277867 1.55855 0 0.15589 1.61315 0 0.150713 1.55957 0 0.154324 1.59694 0 0.15228 1.57578 0 0.245344 1.60198 0 0.237196 1.54878 0 0.242878 1.58588 0 0.239662 1.56488 0 0.194569 1.60894 0 0.188107 1.55551 0 0.192613 1.59277 0 0.190062 1.57168 0 0.273485 1.53397 0 0.264039 1.48099 0 0.270627 1.51794 0 0.266897 1.49702 0 0.149878 1.55094 0 0.144701 1.49736 0 0.148312 1.53472 0 0.146268 1.51357 0 0.235882 1.5402 0 0.227734 1.487 0 0.233417 1.5241 0 0.2302 1.5031 0 0.187065 1.54689 0 0.180604 1.49346 0 0.18511 1.53072 0 0.182559 1.50963 0 0.156257 1.86412 0 0.151762 1.81049 0 0.154897 1.84789 0 0.153122 1.82672 0 0.0114948 1.87063 0 0.0111641 1.81681 0 0.0113948 1.85434 0 0.0112642 1.83309 0 0.112054 1.8673 0 0.10883 1.81358 0 0.111079 1.85104 0 0.109806 1.82983 0 0.0548851 1.86986 0 0.053306 1.81606 0 0.0544073 1.85358 0 0.0537838 1.83234 0 0.328335 1.84162 0 0.318888 1.78864 0 0.325476 1.82559 0 0.321747 1.80467 0 0.179938 1.86199 0 0.174761 1.80841 0 0.178371 1.84578 0 0.176327 1.82463 0 0.28319 1.8491 0 0.275042 1.7959 0 0.280725 1.833 0 0.277508 1.812 0 0.224582 1.85713 0 0.218121 1.8037 0 0.222627 1.84096 0 0.220076 1.81987 0 0.317365 1.78009 0 0.307918 1.72711 0 0.314506 1.76406 0 0.310777 1.74314 0 0.173926 1.79978 0 0.168749 1.7462 0 0.172359 1.78357 0 0.170315 1.76242 0 0.273728 1.78732 0 0.265581 1.73412 0 0.271263 1.77122 0 0.268046 1.75022 0 0.217079 1.79508 0 0.210618 1.74165 0 0.215124 1.77891 0 0.212573 1.75782 0 0.0936093 1.11674 0 0.0891136 1.06311 0 0.0922489 1.10051 0 0.090474 1.07934 0 0.00688624 1.12064 0 0.00655552 1.06682 0 0.00678617 1.10435 0 0.0066556 1.08311 0 0.0671285 1.11865 0 0.0639046 1.06492 0 0.066153 1.10239 0 0.0648801 1.08118 0 0.0328801 1.12018 0 0.031301 1.06638 0 0.0324023 1.1039 0 0.0317789 1.08266 0 0.196696 1.10326 0 0.18725 1.05028 0 0.193838 1.08723 0 0.190108 1.06631 0 0.107796 1.11546 0 0.102619 1.06189 0 0.106229 1.09925 0 0.104185 1.0781 0 0.169651 1.10774 0 0.161504 1.05454 0 0.167186 1.09165 0 0.163969 1.07064 0 0.134541 1.11255 0 0.12808 1.05912 0 0.132586 1.09639 0 0.130035 1.07529 0 0.185726 1.04173 0 0.17628 0.988748 0 0.182868 1.0257 0 0.179138 1.00478 0 0.101784 1.05325 0 0.0966068 0.999682 0 0.100217 1.03704 0 0.0981733 1.01589 0 0.16019 1.04597 0 0.152042 0.992764 0 0.157724 1.02987 0 0.154507 1.00886 0 0.127038 1.05051 0 0.120576 0.997075 0 0.125082 1.03434 0 0.122531 1.01324 0 0.114492 1.36587 0 0.109996 1.31224 0 0.113132 1.34964 0 0.111357 1.32847 0 0.00842244 1.37063 0 0.00809172 1.31681 0 0.00832237 1.35435 0 0.0081918 1.3331 0 0.0821037 1.3682 0 0.0788798 1.31447 0 0.0811282 1.35194 0 0.0798554 1.33073 0 0.0402151 1.37007 0 0.038636 1.31627 0 0.0397373 1.35379 0 0.0391139 1.33255 0 0.240576 1.34938 0 0.231129 1.2964 0 0.237717 1.33335 0 0.233988 1.31243 0 0.131843 1.3643 0 0.126666 1.31073 0 0.130276 1.34809 0 0.128232 1.32694 0 0.207497 1.35486 0 0.19935 1.30166 0 0.205032 1.33877 0 0.201815 1.31776 0 0.164555 1.36075 0 0.158093 1.30732 0 0.1626 1.34458 0 0.160049 1.32348 0 0.229606 1.28785 0 0.220159 1.23487 0 0.226747 1.27182 0 0.223018 1.2509 0 0.125831 1.30209 0 0.120654 1.24852 0 0.124265 1.28588 0 0.122221 1.26473 0 0.198036 1.29308 0 0.189888 1.23988 0 0.19557 1.27699 0 0.192354 1.25598 0 0.157051 1.2987 0 0.15059 1.24527 0 0.155096 1.28253 0 0.152545 1.26144 0 0.145816 1.73956 0 0.14132 1.68593 0 0.144455 1.72333 0 0.142681 1.70216 0 0.0107267 1.74563 0 0.010396 1.69181 0 0.0106267 1.72934 0 0.0104961 1.70809 0 0.104567 1.74253 0 0.101343 1.6888 0 0.103591 1.72627 0 0.102318 1.70506 0 0.0512176 1.74491 0 0.0496385 1.69111 0 0.0507398 1.72863 0 0.0501163 1.70739 0 0.306395 1.71856 0 0.296948 1.66558 0 0.303536 1.70253 0 0.299807 1.68161 0 0.167914 1.73757 0 0.162737 1.68399 0 0.166347 1.72136 0 0.164303 1.70021 0 0.264267 1.72554 0 0.256119 1.67234 0 0.261801 1.70944 0 0.258585 1.68844 0 0.209576 1.73303 0 0.203114 1.6796 0 0.20762 1.71687 0 0.205069 1.69577 0 0.295425 1.65703 0 0.285979 1.60405 0 0.292567 1.641 0 0.288837 1.62008 0 0.161902 1.67536 0 0.156725 1.62178 0 0.160336 1.65915 0 0.158292 1.63799 0 0.254805 1.66376 0 0.246658 1.61056 0 0.25234 1.64766 0 0.249123 1.62666 0 0.202072 1.67099 0 0.195611 1.61755 0 0.200117 1.65482 0 0.197566 1.63372 0 0.166699 1.98869 0 0.162203 1.93505 0 0.165338 1.97246 0 0.163563 1.95128 0 0.0122629 1.99562 0 0.0119322 1.9418 0 0.0121629 1.97934 0 0.0120323 1.95809 0 0.119542 1.99208 0 0.116318 1.93835 0 0.118566 1.97582 0 0.117293 1.95461 0 0.0585526 1.9948 0 0.0569735 1.941 0 0.0580748 1.97852 0 0.0574513 1.95728 0 0.350274 1.96468 0 0.340828 1.91169 0 0.347416 1.94865 0 0.343686 1.92773 0 0.191961 1.98641 0 0.186784 1.93284 0 0.190395 1.9702 0 0.188351 1.94905 0 0.302113 1.97266 0 0.293965 1.91946 0 0.299648 1.95656 0 0.296431 1.93556 0 0.239589 1.98123 0 0.233128 1.92779 0 0.237634 1.96506 0 0.235083 1.94396 0 0.339305 1.90315 0 0.329858 1.85017 0 0.336446 1.88712 0 0.332717 1.8662 0 0.185949 1.9242 0 0.180772 1.87063 0 0.184383 1.90799 0 0.182339 1.88684 0 0.292652 1.91088 0 0.284504 1.85768 0 0.290186 1.89478 0 0.286969 1.87378 0 0.232086 1.91918 0 0.225624 1.86575 0 0.230131 1.90301 0 0.22758 1.88191 0 0.104051 1.24131 0 0.0995549 1.18767 0 0.10269 1.22508 0 0.100915 1.2039 0 0.00765434 1.24564 0 0.00732362 1.19182 0 0.00755427 1.22935 0 0.0074237 1.2081 0 0.0746161 1.24342 0 0.0713922 1.1897 0 0.0736406 1.22717 0 0.0723678 1.20596 0 0.0365476 1.24512 0 0.0349685 1.19133 0 0.0360698 1.22885 0 0.0354464 1.20761 0 0.218636 1.22632 0 0.209189 1.17334 0 0.215777 1.21029 0 0.212048 1.18937 0 0.119819 1.23988 0 0.114642 1.18631 0 0.118253 1.22367 0 0.116209 1.20252 0 0.188574 1.2313 0 0.180427 1.1781 0 0.186109 1.21521 0 0.182892 1.1942 0 0.149548 1.23665 0 0.143087 1.18322 0 0.147593 1.22048 0 0.145042 1.19939 0 0.207666 1.16479 0 0.19822 1.11181 0 0.204808 1.14876 0 0.201078 1.12784 0 0.113807 1.17767 0 0.10863 1.1241 0 0.112241 1.16146 0 0.110197 1.14031 0 0.179113 1.16952 0 0.170965 1.11632 0 0.176647 1.15343 0 0.173431 1.13242 0 0.142045 1.1746 0 0.135583 1.12117 0 0.140089 1.15843 0 0.137538 1.13734 0 0.124933 1.49043 0 0.120438 1.4368 0 0.123573 1.4742 0 0.121798 1.45303 0 0.00919054 1.49563 0 0.00885983 1.44181 0 0.00909047 1.47935 0 0.0089599 1.4581 0 0.0895913 1.49297 0 0.0863674 1.43925 0 0.0886158 1.47672 0 0.087343 1.45551 0 0.0438826 1.49502 0 0.0423035 1.44122 0 0.0434048 1.47874 0 0.0427813 1.4575 0 0.262515 1.47244 0 0.253069 1.41946 0 0.259657 1.45641 0 0.255927 1.43549 0 0.143867 1.48873 0 0.13869 1.43515 0 0.1423 1.47251 0 0.140256 1.45136 0 0.226421 1.47842 0 0.218273 1.42522 0 0.223955 1.46232 0 0.220738 1.44132 0 0.179562 1.48484 0 0.1731 1.43141 0 0.177607 1.46867 0 0.175056 1.44758 0 0.251546 1.41091 0 0.242099 1.35793 0 0.248687 1.39488 0 0.244958 1.37396 0 0.137855 1.42651 0 0.132678 1.37294 0 0.136288 1.4103 0 0.134244 1.38915 0 0.216959 1.41664 0 0.208811 1.36344 0 0.214494 1.40054 0 0.211277 1.37954 0 0.172058 1.42279 0 0.165597 1.36936 0 0.170103 1.40663 0 0.167552 1.38553 0 
</DataArray> 
</Points> 
<Cells> 
<DataArray type="Int32" Name="connectivity">
0 1 5 4 1 2 6 5 2 3 7 6 4 5 9 8 5 6 10 9 6 7 11 10 8 9 13 12 9 10 14 13 10 11 15 14 16 17 21 20 17 18 22 21 18 19 23 22 20 21 25 24 21 22 26 25 22 23 27 26 24 25 29 28 25 26 30 29 26 27 31 30 32 33 37 36 33 34 38 37 34 35 39 38 36 37 41 40 37 38 42 41 38 39 43 42 40 41 45 44 41 42 46 45 42 43 47 46 48 49 53 52 49 50 54 53 50 51 55 54 52 53 57 56 53 54 58 57 54 55 59 58 56 57 61 60 57 58 62 61 58 59 63 62 64 65 69 68 65 66 70 69 66 67 71 70 68 69 73 72 69 70 74 73 70 71 75 74 72 73 77 76 73 74 78 77 74 75 79 78 80 81 85 84 81 82 86 85 82 83 87 86 84 85 89 88 85 86 90 89 86 87 91 90 88 89 93 92 89 90 94 93 90 91 95 94 96 97 101 100 97 98 102 101 98 99 103 102 100 101 105 104 101 102 106 105 102 103 107 106 104 105 109 108 105 106 110 109 106 107 111 110 112 113 117 116 113 114 118 117 114 115 119 118 116 117 121 120 117 118 122 121 118 119 123 122 120 121 125 124 121 122 126 125 122 123 127 126 128 129 133 132 129 130 134 133 130 131 135 134 132 133 137 136 133 134 138 137 134 135 139 138 136 137 141 140 137 138 142 141 138 139 143 142 144 145 149 148 145 146 150 149 146 147 151 150 148 149 153 152 149 150 154 153 150 151 155 154 152 153 157 156 153 154 158 157 154 155 159 158 160 161 165 164 161 162 166 165 162 163 167 166 164 165 169 168 165 166 170 169 166 167 171 170 168 169 173 172 169 170 174 173 170 171 175 174 176 177 181 180 177 178 182 181 178 179 183 182 180 181 185 184 181 182 186 185 182 183 187 186 184 185 189 188 185 186 190 189 186 187 191 190 192 193 197 196 193 194 198 197 194 195 199 198 196 197 201 200 197 198 202 201 198 199 203 202 200 201 205 204 201 202 206 205 202 203 207 206 208 209 213 212 209 210 214 213 210 211 215 214 212 213 217 216 213 214 218 217 214 215 219 218 216 217 221 220 217 218 222 221 218 219 223 222 224 225 229 228 225 226 230 229 226 227 231 230 228 229 233 232 229 230 234 233 230 231 235 234 232 233 237 236 233 234 238 237 234 235 239 238 240 241 245 244 241 242 246 245 242 243 247 246 244 245 249 248 245 246 250 249 246 247 251 250 248 249 253 252 249 250 254 253 250 251 255 254 256 257 261 260 257 258 262 261 258 259 263 262 260 261 265 264 261 262 266 265 262 263 267 266 264 265 269 268 265 266 270 269 266 267 271 270 272 273 277 276 273 274 278 277 274 275 279 278 276 277 281 280 277 278 282 281 278 279 283 282 280 281 285 284 281 282 286 285 282 283 287 286 288 289 293 292 289 290 294 293 290 291 295 294 292 293 297 296 293 294 298 297 294 295 299 298 296 297 301 300 297 298 302 301 298 299 303 302 304 305 309 308 305 306 310 309 306 307 311 310 308 309 313 312 309 310 314 313 310 311 315 314 312 313 317 316 313 314 318 317 314 315 319 318 320 321 325 324 321 322 326 325 322 323 327 326 324 325 329 328 325 326 330 329 326 327 331 330 328 329 333 332 329 330 334 333 330 331 335 334 336 337 341 340 337 338 342 341 338 339 343 342 340 341 345 344 341 342 346 345 342 343 347 346 344 345 349 348 345 346 350 349 346 347 351 350 352 353 357 356 353 354 358 357 354 355 359 358 356 357 361 360 357 358 362 361 358 359 363 362 360 361 365 364 361 362 366 365 362 363 367 366 368 369 373 372 369 370 374 373 370 371 375 374 372 373 377 376 373 374 378 377 374 375 379 378 376 377 381 380 377 378 382 381 378 379 383 382 384 385 389 388 385 386 390 389 386 387 391 390 388 389 393 392 389 390 394 393 390 391 395 394 392 393 397 396 393 394 398 397 394 395 399 398 400 401 405 404 401 402 406 405 402 403 407 406 404 405 409 408 405 406 410 409 406 407 411 410 408 409 413 412 409 410 414 413 410 411 415 414 416 417 421 420 417 418 422 421 418 419 423 422 420 421 425 424 421 422 426 425 422 423 427 426 424 425 429 428 425 426 430 429 426 427 431 430 432 433 437 436 433 434 438 437 434 435 439 438 436 437 441 440 437 438 442 441 438 439 443 442 440 441 445 444 441 442 446 445 442 443 447 446 448 449 453 452 449 450 454 453 450 451 455 454 452 453 457 456 453 454 458 457 454 455 459 458 456 457 461 460 457 458 462 461 458 459 463 462 464 465 469 468 465 466 470 469 466 467 471 470 468 469 473 472 469 470 474 473 470 471 475 474 472 473 477 476 473 474 478 477 474 475 479 478 480 481 485 484 481 482 486 485 482 483 487 486 484 485 489 488 485 486 490 489 486 487 491 490 488 489 493 492 489 490 494 493 490 491 495 494 496 497 501 500 497 498 502 501 498 499 503 502 500 501 505 504 501 502 506 505 502 503 507 506 504 505 509 508 505 506 510 509 506 507 511 510 512 513 517 516 513 514 518 517 514 515 519 518 516 517 521 520 517 518 522 521 518 519 523 522 520 521 525 524 521 522 526 525 522 523 527 526 528 529 533 532 529 530 534 533 530 531 535 534 532 533 537 536 533 534 538 537 534 535 539 538 536 537 541 540 537 538 542 541 538 539 543 542 544 545 549 548 545 546 550 549 546 547 551 550 548 549 553 552 549 550 554 553 550 551 555 554 552 553 557 556 553 554 558 557 554 555 559 558 560 561 565 564 561 562 566 565 562 563 567 566 564 565 569 568 565 566 570 569 566 567 571 570 568 569 573 572 569 570 574 573 570 571 575 574 576 577 581 580 577 578 582 581 578 579 583 582 580 581 585 584 581 582 586 585 582 583 587 586 584 585 589 588 585 586 590 589 586 587 591 590 592 593 597 596 593 594 598 597 594 595 599 598 596 597 601 600 597 598 602 601 598 599 603 602 600 601 605 604 601 602 606 605 602 603 607 606 608 609 613 612 609 610 614 613 610 611 615 614 612 613 617 616 613 614 618 617 614 615 619 618 616 617 621 620 617 618 622 621 618 619 623 622 624 625 629 628 625 626 630 629 626 627 631 630 628 629 633 632 629 630 634 633 630 631 635 634 632 633 637 636 633 634 638 637 634 635 639 638 640 641 645 644 641 642 646 645 642 643 647 646 644 645 649 648 645 646 650 649 646 647 651 650 648 649 653 652 649 650 654 653 650 651 655 654 656 657 661 660 657 658 662 661 658 659 663 662 660 661 665 664 661 662 666 665 662 663 667 666 664 665 669 668 665 666 670 669 666 667 671 670 672 673 677 676 673 674 678 677 674 675 679 678 676 677 681 680 677 678 682 681 678 679 683 682 680 681 685 684 681 682 686 685 682 683 687 686 688 689 693 692 689 690 694 693 690 691 695 694 692 693 697 696 693 694 698 697 694 695 699 698 696 697 701 700 697 698 702 701 698 699 703 702 704 705 709 708 705 706 710 709 706 707 711 710 708 709 713 712 709 710 714 713 710 711 715 714 712 713 717 716 713 714 718 717 714 715 719 718 720 721 725 724 721 722 726 725 722 723 727 726 724 725 729 728 725 726 730 729 726 727 731 730 728 729 733 732 729 730 734 733 730 731 735 734 736 737 741 740 737 738 742 741 738 739 743 742 740 741 745 744 741 742 746 745 742 743 747 746 744 745 749 748 745 746 750 749 746 747 751 750 752 753 757 756 753 754 758 757 754 755 759 758 756 757 761 760 757 758 762 761 758 759 763 762 760 761 765 764 761 762 766 765 762 763 767 766 768 769 773 772 769 770 774 773 770 771 775 774 772 773 777 776 773 774 778 777 774 775 779 778 776 777 781 780 777 778 782 781 778 779 783 782 784 785 789 788 785 786 790 789 786 787 791 790 788 789 793 792 789 790 794 793 790 791 795 794 792 793 797 796 793 794 798 797 794 795 799 798 800 801 805 804 801 802 806 805 802 803 807 806 804 805 809 808 805 806 810 809 806 807 811 810 808 809 813 812 809 810 814 813 810 811 815 814 816 817 821 820 817 818 822 821 818 819 823 822 820 821 825 824 821 822 826 825 822 823 827 826 824 825 829 828 825 826 830 829 826 827 831 830 832 833 837 836 833 834 838 837 834 835 839 838 836 837 841 840 837 838 842 841 838 839 843 842 840 841 845 844 841 842 846 845 842 843 847 846 848 849 853 852 849 850 854 853 850 851 855 854 852 853 857 856 853 854 858 857 854 855 859 858 856 857 861 860 857 858 862 861 858 859 863 862 864 865 869 868 865 866 870 869 866 867 871 870 868 869 873 872 869 870 874 873 870 871 875 874 872 873 877 876 873 874 878 877 874 875 879 878 880 881 885 884 881 882 886 885 882 883 887 886 884 885 889 888 885 886 890 889 886 887 891 890 888 889 893 892 889 890 894 893 890 891 895 894 896 897 901 900 897 898 902 901 898 899 903 902 900 901 905 904 901 902 906 905 902 903 907 906 904 905 909 908 905 906 910 909 906 907 911 910 912 913 917 916 913 914 918 917 914 915 919 918 916 917 921 920 917 918 922 921 918 919 923 922 920 921 925 924 921 922 926 925 922 923 927 926 928 929 933 932 929 930 934 933 930 931 935 934 932 933 937 936 933 934 938 937 934 935 939 938 936 937 941 940 937 938 942 941 938 939 943 942 944 945 949 948 945 946 950 949 946 947 951 950 948 949 953 952 949 950 954 953 950 951 955 954 952 953 957 956 953 954 958 957 954 955 959 958 960 961 965 964 961 962 966 965 962 963 967 966 964 965 969 968 965 966 970 969 966 967 971 970 968 969 973 972 969 970 974 973 970 971 975 974 976 977 981 980 977 978 982 981 978 979 983 982 980 981 985 984 981 982 986 985 982 983 987 986 984 985 989 988 985 986 990 989 986 987 991 990 992 993 997 996 993 994 998 997 994 995 999 998 996 997 1001 1000 997 998 1002 1001 998 999 1003 1002 1000 1001 1005 1004 1001 1002 1006 1005 1002 1003 1007 1006 1008 1009 1013 1012 1009 1010 1014 1013 1010 1011 1015 1014 1012 1013 1017 1016 1013 1014 1018 1017 1014 1015 1019 1018 1016 1017 1021 1020 1017 1018 1022 1021 1018 1019 1023 1022 1024 1025 1029 1028 1025 1026 1030 1029 1026 1027 1031 1030 1028 1029 1033 1032 1029 1030 1034 1033 1030 1031 1035 1034 1032 1033 1037 1036 1033 1034 1038 1037 1034 1035 1039 1038 1040 1041 1045 1044 1041 1042 1046 1045 1042 1043 1047 1046 1044 1045 1049 1048 1045 1046 1050 1049 1046 1047 1051 1050 1048 1049 1053 1052 1049 1050 1054 1053 1050 1051 1055 1054 1056 1057 1061 1060 1057 1058 1062 1061 1058 1059 1063 1062 1060 1061 1065 1064 1061 1062 1066 1065 1062 1063 1067 1066 1064 1065 1069 1068 1065 1066 1070 1069 1066 1067 1071 1070 1072 1073 1077 1076 1073 1074 1078 1077 1074 1075 1079 1078 1076 1077 1081 1080 1077 1078 1082 1081 1078 1079 1083 1082 1080 1081 1085 1084 1081 1082 1086 1085 1082 1083 1087 1086 1088 1089 1093 1092 1089 1090 1094 1093 1090 1091 1095 1094 1092 1093 1097 1096 1093 1094 1098 1097 1094 1095 1099 1098 1096 1097 1101 1100 1097 1098 1102 1101 1098 1099 1103 1102 1104 1105 1109 1108 1105 1106 1110 1109 1106 1107 1111 1110 1108 1109 1113 1112 1109 1110 1114 1113 1110 1111 1115 1114 1112 1113 1117 1116 1113 1114 1118 1117 1114 1115 1119 1118 1120 1121 1125 1124 1121 1122 1126 1125 1122 1123 1127 1126 1124 1125 1129 1128 1125 1126 1130 1129 1126 1127 1131 1130 1128 1129 1133 1132 1129 1130 1134 1133 1130 1131 1135 1134 1136 1137 1141 1140 1137 1138 1142 1141 1138 1139 1143 1142 1140 1141 1145 1144 1141 1142 1146 1145 1142 1143 1147 1146 1144 1145 1149 1148 1145 1146 1150 1149 1146 1147 1151 1150 1152 1153 1157 1156 1153 1154 1158 1157 1154 1155 1159 1158 1156 1157 1161 1160 1157 1158 1162 1161 1158 1159 1163 1162 1160 1161 1165 1164 1161 1162 1166 1165 1162 1163 1167 1166 1168 1169 1173 1172 1169 1170 1174 1173 1170 1171 1175 1174 1172 1173 1177 1176 1173 1174 1178 1177 1174 1175 1179 1178 1176 1177 1181 1180 1177 1178 1182 1181 1178 1179 1183 1182 1184 1185 1189 1188 1185 1186 1190 1189 1186 1187 1191 1190 1188 1189 1193 1192 1189 1190 1194 1193 1190 1191 1195 1194 1192 1193 1197 1196 1193 1194 1198 1197 1194 1195 1199 1198 1200 1201 1205 1204 1201 1202 1206 1205 1202 1203 1207 1206 1204 1205 1209 1208 1205 1206 1210 1209 1206 1207 1211 1210 1208 1209 1213 1212 1209 1210 1214 1213 1210 1211 1215 1214 1216 1217 1221 1220 1217 1218 1222 1221 1218 1219 1223 1222 1220 1221 1225 1224 1221 1222 1226 1225 1222 1223 1227 1226 1224 1225 1229 1228 1225 1226 1230 1229 1226 1227 1231 1230 1232 1233 1237 1236 1233 1234 1238 1237 1234 1235 1239 1238 1236 1237 1241 1240 1237 1238 1242 1241 1238 1239 1243 1242 1240 1241 1245 1244 1241 1242 1246 1245 1242 1243 1247 1246 1248 1249 1253 1252 1249 1250 1254 1253 1250 1251 1255 1254 1252 1253 1257 1256 1253 1254 1258 1257 1254 1255 1259 1258 1256 1257 1261 1260 1257 1258 1262 1261 1258 1259 1263 1262 1264 1265 1269 1268 1265 1266 1270 1269 1266 1267 1271 1270 1268 1269 1273 1272 1269 1270 1274 1273 1270 1271 1275 1274 1272 1273 1277 1276 1273 1274 1278 1277 1274 1275 1279 1278 
 </DataArray> 
<DataArray type="Int32" Name="offsets"> 
4 8 12 16 20 24 28 32 36 40 44 48 52 56 60 64 68 72 76 80 84 88 92 96 100 104 108 112 116 120 124 128 132 136 140 144 148 152 156 160 164 168 172 176 180 184 188 192 196 200 204 208 212 216 220 224 228 232 236 240 244 248 252 256 260 264 268 272 276 280 284 288 292 296 300 304 308 312 316 320 324 328 332 336 340 344 348 352 356 360 364 368 372 376 380 384 388 392 396 400 404 408 412 416 420 424 428 432 436 440 444 448 452 456 460 464 468 472 476 480 484 488 492 496 500 504 508 512 516 520 524 528 532 536 540 544 548 552 556 560 564 568 572 576 580 584 588 592 596 600 604 608 612 616 620 624 628 632 636 640 644 648 652 656 660 664 668 672 676 680 684 688 692 696 700 704 708 712 716 720 724 728 732 736 740 744 748 752 756 760 764 768 772 776 780 784 788 792 796 800 804 808 812 816 820 824 828 832 836 840 844 848 852 856 860 864 868 872 876 880 884 888 892 896 900 904 908 912 916 920 924 928 932 936 940 944 948 952 956 960 964 968 972 976 980 984 988 992 996 1000 1004 1008 1012 1016 1020 1024 1028 1032 1036 1040 1044 1048 1052 1056 1060 1064 1068 1072 1076 1080 1084 1088 1092 1096 1100 1104 1108 1112 1116 1120 1124 1128 1132 1136 1140 1144 1148 1152 1156 1160 1164 1168 1172 1176 1180 1184 1188 1192 1196 1200 1204 1208 1212 1216 1220 1224 1228 1232 1236 1240 1244 1248 1252 1256 1260 1264 1268 1272 1276 1280 1284 1288 1292 1296 1300 1304 1308 1312 1316 1320 1324 1328 1332 1336 1340 1344 1348 1352 1356 1360 1364 1368 1372 1376 1380 1384 1388 1392 1396 1400 1404 1408 1412 1416 1420 1424 1428 1432 1436 1440 1444 1448 1452 1456 1460 1464 1468 1472 1476 1480 1484 1488 1492 1496 1500 1504 1508 1512 1516 1520 1524 1528 1532 1536 1540 1544 1548 1552 1556 1560 1564 1568 1572 1576 1580 1584 1588 1592 1596 1600 1604 1608 1612 1616 1620 1624 1628 1632 1636 1640 1644 1648 1652 1656 1660 1664 1668 1672 1676 1680 1684 1688 1692 1696 1700 1704 1708 1712 1716 1720 1724 1728 1732 1736 1740 1744 1748 1752 1756 1760 1764 1768 1772 1776 1780 1784 1788 1792 1796 1800 1804 1808 1812 1816 1820 1824 1828 1832 1836 1840 1844 1848 1852 1856 1860 1864 1868 1872 1876 1880 1884 1888 1892 1896 1900 1904 1908 1912 1916 1920 1924 1928 1932 1936 1940 1944 1948 1952 1956 1960 1964 1968 1972 1976 1980 1984 1988 1992 1996 2000 2004 2008 2012 2016 2020 2024 2028 2032 2036 2040 2044 2048 2052 2056 2060 2064 2068 2072 2076 2080 2084 2088 2092 2096 2100 2104 2108 2112 2116 2120 2124 2128 2132 2136 2140 2144 2148 2152 2156 2160 2164 2168 2172 2176 2180 2184 2188 2192 2196 2200 2204 2208 2212 2216 2220 2224 2228 2232 2236 2240 2244 2248 2252 2256 2260 2264 2268 2272 2276 2280 2284 2288 2292 2296 2300 2304 2308 2312 2316 2320 2324 2328 2332 2336 2340 2344 2348 2352 2356 2360 2364 2368 2372 2376 2380 2384 2388 2392 2396 2400 2404 2408 2412 2416 2420 2424 2428 2432 2436 2440 2444 2448 2452 2456 2460 2464 2468 2472 2476 2480 2484 2488 2492 2496 2500 2504 2508 2512 2516 2520 2524 2528 2532 2536 2540 2544 2548 2552 2556 2560 2564 2568 2572 2576 2580 2584 2588 2592 2596 2600 2604 2608 2612 2616 2620 2624 2628 2632 2636 2640 2644 2648 2652 2656 2660 2664 2668 2672 2676 2680 2684 2688 2692 2696 2700 2704 2708 2712 2716 2720 2724 2728 2732 2736 2740 2744 2748 2752 2756 2760 2764 2768 2772 2776 2780 2784 2788 2792 2796 2800 2804 2808 2812 2816 2820 2824 2828 2832 2836 2840 2844 2848 2852 2856 2860 2864 2868 2872 2876 2880 
</DataArray> 
<DataArray type="Int32" Name="types"> 
9 9 9 9 9 9 9 9 9 9 9 9 9 9 9 9 9 9 9 9 9 9 9 9 9 9 9 9 9 9 9 9 9 9 9 9 9 9 9 9 9 9 9 9 9 9 9 9 9 9 9 9 9 9 9 9 9 9 9 9 9 9 9 9 9 9 9 9 9 9 9 9 9 9 9 9 9 9 9 9 9 9 9 9 9 9 9 9 9 9 9 9 9 9 9 9 9 9 9 9 9 9 9 9 9 9 9 9 9 9 9 9 9 9 9 9 9 9 9 9 9 9 9 9 9 9 9 9 9 9 9 9 9 9 9 9 9 9 9 9 9 9 9 9 9 9 9 9 9 9 9 9 9 9 9 9 9 9 9 9 9 9 9 9 9 9 9 9 9 9 9 9 9 9 9 9 9 9 9 9 9 9 9 9 9 9 9 9 9 9 9 9 9 9 9 9 9 9 9 9 9 9 9 9 9 9 9 9 9 9 9 9 9 9 9 9 9 9 9 9 9 9 9 9 9 9 9 9 9 9 9 9 9 9 9 9 9 9 9 9 9 9 9 9 9 9 9 9 9 9 9 9 9 9 9 9 9 9 9 9 9 9 9 9 9 9 9 9 9 9 9 9 9 9 9 9 9 9 9 9 9 9 9 9 9 9 9 9 9 9 9 9 9 9 9 9 9 9 9 9 9 9 9 9 9 9 9 9 9 9 9 9 9 9 9 9 9 9 9 9 9 9 9 9 9 9 9 9 9 9 9 9 9 9 9 9 9 9 9 9 9 9 9 9 9 9 9 9 9 9 9 9 9 9 9 9 9 9 9 9 9 9 9 9 9 9 9 9 9 9 9 9 9 9 9 9 9 9 9 9 9 9 9 9 9 9 9 9 9 9 9 9 9 9 9 9 9 9 9 9 9 9 9 9 9 9 9 9 9 9 9 9 9 9 9 9 9 9 9 9 9 9 9 9 9 9 9 9 9 9 9 9 9 9 9 9 9 9 9 9 9 9 9 9 9 9 9 9 9 9 9 9 9 9 9 9 9 9 9 9 9 9 9 9 9 9 9 9 9 9 9 9 9 9 9 9 9 9 9 9 9 9 9 9 9 9 9 9 9 9 9 9 9 9 9 9 9 9 9 9 9 9 9 9 9 9 9 9 9 9 9 9 9 9 9 9 9 9 9 9 9 9 9 9 9 9 9 9 9 9 9 9 9 9 9 9 9 9 9 9 9 9 9 9 9 9 9 9 9 9 9 9 9 9 9 9 9 9 9 9 9 9 9 9 9 9 9 9 9 9 9 9 9 9 9 9 9 9 9 9 9 9 9 9 9 9 9 9 9 9 9 9 9 9 9 9 9 9 9 9 9 9 9 9 9 9 9 9 9 9 9 9 9 9 9 9 9 9 9 9 9 9 9 9 9 9 9 9 9 9 9 9 9 9 9 9 9 9 9 9 9 9 9 9 9 9 9 9 9 9 9 9 9 9 9 9 9 9 9 9 9 9 9 9 9 9 9 9 9 9 9 9 9 9 9 9 9 9 9 9 9 9 9 9 9 9 9 9 9 9 9 9 9 9 9 9 9 9 9 9 9 9 9 9 9 9 9 9 9 9 9 9 9 9 9 9 9 9 9 9 
</DataArray>
</Cells> 
</Piece> 
</UnstructuredGrid> 
</VTKFile> 
