<?xml version="1.0"?> 
<VTKFile type="UnstructuredGrid" version="0.1"> 
<UnstructuredGrid> 
<Piece NumberOfPoints="36" NumberOfCells="25"> 
<PointData Scalars="fields">
<DataArray type="Float32" Name="stress" format="ascii" NumberOfComponents="1"> 
32952.2 2584.59 -2692 2584.59 32952.2 -2692 31804 4943.3 -8647.75 4943.3 31804 -8647.75 24949.4 13152.1 -15516.5 13152.1 24949.4 -15516.5 54225.8 -30827.3 -8089.07 -30827.3 54225.8 -8089.07 53981.7 -18977.9 -22852.1 -18977.9 53981.7 -22852.1 40188.5 8893.11 -39634.1 8893.11 40188.5 -39634.1 33952 -2848.78 -3025.81 -2848.78 33952 -3025.81 32783.8 557.881 -9968.86 557.881 32783.8 -9968.86 25018 10971.4 -17941.3 10971.4 25018 -17941.3 48207.4 -26768.2 -6674.12 -26768.2 48207.4 -6674.12 47620.3 -16763.4 -19746 -16763.4 47620.3 -19746 34973.3 7333.01 -34614 7333.01 34973.3 -34614 36537.6 -11031.8 -3767.32 -11031.8 36537.6 -3767.32 35412.7 -5829.34 -12392.7 -5829.34 35412.7 -12392.7 26179.3 8340.5 -22250.6 8340.5 26179.3 -22250.6 41432.2 -19732.3 -5030.09 -19732.3 41432.2 -5030.09 40499 -12188.4 -15832.2 -12188.4 40499 -15832.2 29515.7 6841.17 -28138.2 6841.17 29515.7 -28138.2 </DataArray> 
<DataArray  type="Float64"  Name="u" NumberOfComponents="3" format="ascii"> 
2.56171e-05 0.000576706 0 0.000576706 2.56171e-05 0 0.000133122 0.000550858 0 0.000550858 0.000133122 0 0.000302615 0.000463109 0 0.000463109 0.000302615 0 3.04946e-05 0.000735174 0 0.000735174 3.04946e-05 0 0.000159795 0.000693956 0 0.000693956 0.000159795 0 0.000368351 0.000573575 0 0.000573575 0.000368351 0 2.59795e-05 0.000584602 0 0.000584602 2.59795e-05 0 0.000134998 0.000558445 0 0.000558445 0.000134998 0 0.000306852 0.00046954 0 0.00046954 0.000306852 0 2.94381e-05 0.000696971 0 0.000696971 2.94381e-05 0 0.000153912 0.000659915 0 0.000659915 0.000153912 0 0.000353465 0.000547871 0 0.000547871 0.000353465 0 2.67794e-05 0.000607181 0 0.000607181 2.67794e-05 0 0.00013928 0.000579235 0 0.000579235 0.00013928 0 0.000317064 0.000486095 0 0.000486095 0.000317064 0 2.80276e-05 0.000647733 0 0.000647733 2.80276e-05 0 0.000146105 0.000615854 0 0.000615854 0.000146105 0 0.000333886 0.000514363 0 0.000514363 0.000333886 0 </DataArray> 
</PointData> 
<Points> 
<DataArray type="Float32" NumberOfComponents="3"> 
0.0237746 0.492674 0 0.492674 0.0237746 0 0.122387 0.477822 0 0.477822 0.122387 0 0.273751 0.410309 0 0.410309 0.273751 0 0.0147856 0.306397 0 0.306397 0.0147856 0 0.0761134 0.29716 0 0.29716 0.0761134 0 0.170247 0.255173 0 0.255173 0.170247 0 0.0224671 0.465579 0 0.465579 0.0224671 0 0.115657 0.451544 0 0.451544 0.115657 0 0.258696 0.387744 0 0.387744 0.258696 0 0.016093 0.333491 0 0.333491 0.016093 0 0.0828441 0.323438 0 0.323438 0.0828441 0 0.185302 0.277738 0 0.277738 0.185302 0 0.0204302 0.423369 0 0.423369 0.0204302 0 0.105171 0.410607 0 0.410607 0.105171 0 0.235242 0.35259 0 0.35259 0.235242 0 0.0181299 0.375701 0 0.375701 0.0181299 0 0.0933297 0.364375 0 0.364375 0.0933297 0 0.208756 0.312891 0 0.312891 0.208756 0 
</DataArray> 
</Points> 
<Cells> 
<DataArray type="Int32" Name="connectivity">
0 1 7 6 1 2 8 7 2 3 9 8 3 4 10 9 4 5 11 10 6 7 13 12 7 8 14 13 8 9 15 14 9 10 16 15 10 11 17 16 12 13 19 18 13 14 20 19 14 15 21 20 15 16 22 21 16 17 23 22 18 19 25 24 19 20 26 25 20 21 27 26 21 22 28 27 22 23 29 28 24 25 31 30 25 26 32 31 26 27 33 32 27 28 34 33 28 29 35 34 
 </DataArray> 
<DataArray type="Int32" Name="offsets"> 
4 8 12 16 20 24 28 32 36 40 44 48 52 56 60 64 68 72 76 80 84 88 92 96 100 
</DataArray> 
<DataArray type="Int32" Name="types"> 
9 9 9 9 9 9 9 9 9 9 9 9 9 9 9 9 9 9 9 9 9 9 9 9 9 
</DataArray>
</Cells> 
</Piece> 
</UnstructuredGrid> 
</VTKFile> 
