<?xml version="1.0"?> 
<VTKFile type="UnstructuredGrid" version="0.1"> 
<UnstructuredGrid> 
<Piece NumberOfPoints="11264" NumberOfCells="8624"> 
<PointData Vectors="fields">
<DataArray type="Float32" Name="stress" format="ascii" NumberOfComponents="3"> 
2550.83 20267.2 -1065.73 2483.52 20803.4 -23.3866 2543.25 20348.9 -985.204 2483.33 20788.9 -116.986 2529.87 20467.7 -846.98 2487 20754 -271.381 2513.02 20589.8 -665.403 2497.27 20688.8 -463.815 702.879 26688.6 -2404.06 471.656 27236.1 -46.9875 664.568 26777.4 -2207.83 472.413 27230.6 -249.029 608.306 26906.8 -1879.76 481.262 27205.1 -584.847 550.768 27039.1 -1461.41 506.353 27143.1 -1008.77 2516.36 20596.4 -1127.35 2442.31 21138 -24.2447 2507.22 20679.9 -1041.76 2441.59 21124.2 -123.003 2491.62 20801.2 -895.072 2444.85 21090.1 -286.019 2472.62 20925.2 -702.681 2455.48 21025.1 -489.389 775.46 25693.6 -2230.37 565.636 26246.1 -44.4373 741.924 25784.1 -2049.31 566.838 26240.4 -232.512 692.146 25915.6 -1746.12 575.799 26214.8 -544.881 640.415 26049 -1358.71 599.6 26153 -938.765 2326.32 21157.9 -1250.48 2236.32 21706.7 -25.4316 2314.53 21244.5 -1154.48 2235.69 21694.6 -134.449 2295.04 21369.6 -990.521 2239.6 21662.3 -314.582 2272.11 21496.8 -776.338 2251.94 21598 -539.679 1004.71 24335 -1972.98 825.349 24892.6 -39.4103 977.705 24427.2 -1814.36 826.929 24886.1 -206.864 936.827 24560.3 -1547.87 835.722 24860.1 -484.658 893.141 24694.4 -1206.07 857.46 24798.3 -834.29 1926.19 21953.2 -1442.48 1810.66 22508.6 -28.0376 1910.6 22043.1 -1329.93 1811.01 22498.6 -152.817 1885.62 22172.6 -1138.78 1816.83 22468.9 -359.249 1857.06 22303.3 -890.604 1832.32 22405.7 -617.792 1423.51 23019.2 -1693.63 1276.87 23578 -33.1112 1402.82 23111.3 -1559.3 1278.21 23570.2 -178.184 1370.65 23243.9 -1332.51 1285.99 23542.8 -418.517 1335.05 23377.2 -1040 1304.92 23480.6 -720.284 -1281.68 7780.96 -2834.34 -1040.02 9500.21 -2565.18 -1264.52 7935.8 -2821.41 -1064.21 9362.98 -2597.87 -1234.73 8189.34 -2795.8 -1102.74 9131.51 -2648.13 -1194.7 8503.4 -2756.1 -1148.66 8832.42 -2704.51 1769.59 2330.96 -2151.47 3121.97 4450.79 -3654.32 1900.67 2491.28 -2276.54 3025.99 4252.2 -3524.3 2112.7 2766.07 -2485.35 2857.8 3929.56 -3309.27 2369.73 3128.32 -2751.31 2630.46 3534.88 -3039.08 -1201.44 7678.1 -2879.66 -947.243 9457.74 -2646.03 -1182.88 7836.52 -2870.27 -972.427 9313.43 -2676.37 -1151.01 8096.46 -2850.38 -1012.54 9071.13 -2722.41 -1108.67 8419.63 -2817.59 -1060.43 8759.92 -2772.91 1418.58 3022.57 -2285.53 2505.25 5048.02 -3526.56 1526.41 3178.3 -2391.13 2430.38 4860.5 -3421.61 1699.8 3443.93 -2566.51 2298.16 4555.15 -3247.03 1908.26 3791.97 -2788.19 2117.6 4180.2 -3025.9 -966.51 7268.69 -2888.12 -689.259 9101.77 -2767.36 -944.09 7428.55 -2888.47 -714.698 8949.49 -2788.49 -906.675 7692.01 -2884.79 -755.865 8695.47 -2818.99 -858.795 8021.78 -2872.44 -806.277 8372.07 -2849.51 837.318 4085.4 -2472.99 1592.27 6009.31 -3330.11 914.467 4237.54 -2549.72 1542.07 5834.9 -3261.6 1037.57 4494.93 -2675.66 1452.63 5549.68 -3145.93 1183.94 4828.66 -2832.13 1329.06 5197.06 -2996.43 -508.037 6440.25 -2812.91 -169.537 8292.92 -2921.71 -476.279 6597.26 -2831.83 -195.897 8134.49 -2922.56 -425.009 6857.85 -2859.43 -240.417 7872.09 -2919.66 -362.596 7187.31 -2887.36 -298.251 7541.37 -2908.47 139.975 5302.46 -2662.5 628.733 7169.95 -3114.09 189.892 5455.37 -2708.22 595.593 7005.31 -3083.53 269.319 5711.51 -2781.29 537.128 6734.49 -3029.42 363.566 6039.42 -2868.41 457.086 6396.61 -2955.15 773.317 9943.6 406.042 885.144 9901.22 -0.450404 789.723 9937.26 375.829 881.878 9901.92 38.3177 813.852 9927.81 323.844 874.135 9904.34 100.969 839.075 9917.81 254.937 859.996 9909.58 177.089 1277.57 10360.3 440.289 1437.17 10327.5 12.0602 1301.73 10354.1 406.3 1434.93 10327.1 50.7392 1337.75 10345.2 348.842 1426.26 10327.6 114.047 1375.74 10336.6 274.43 1406.79 10330.5 192.418 811.753 9974.73 409.442 927.676 9933.18 0.655566 828.647 9968.36 378.865 923.971 9933.64 39.4292 853.439 9958.87 326.337 915.622 9935.76 102.175 879.322 9948.87 256.863 900.862 9940.76 178.561 1229.56 10318.4 437.651 1384.96 10284.6 12.0036 1252.87 10312 403.879 1382.06 10284 50.4403 1287.47 10302.9 346.774 1372.92 10284.5 113.362 1323.87 10293.9 272.802 1353.75 10287.5 191.269 877.119 10027.4 414.81 999.765 9987.17 2.80274 894.885 10021 383.625 995.531 9987.26 41.4902 920.901 10011.4 330.216 986.387 9988.9 104.251 948.029 10001.4 259.865 970.672 9993.51 180.928 1152.3 10252.5 433.252 1300.86 10217.1 11.0823 1174.28 10245.9 399.909 1297.12 10216.5 49.332 1206.73 10236.5 343.45 1287.43 10216.9 111.907 1240.73 10227.1 270.19 1268.82 10220.3 189.304 962.724 10096.4 421.164 1093.78 10057.7 5.79299 981.71 10089.9 389.224 1089.26 10057.4 44.2778 1009.51 10080.2 334.749 1079.48 10058.6 106.911 1038.5 10070.3 263.385 1062.69 10062.7 183.792 1058.67 10174.6 427.563 1198.75 10137.6 8.86955 1079.13 10168 394.857 1194.38 10137 47.1509 1109.16 10158.4 339.31 1184.41 10137.7 109.649 1140.53 10148.6 266.944 1166.61 10141.4 186.713 485.209 10055.4 689.427 764.84 9946.84 420.381 512.695 10043.4 672.362 746.35 9953.76 449.133 557.379 10024.7 641.674 712.888 9966 494.397 611.629 10003.4 598.673 666.234 9982.98 547.262 868.139 10452.6 758.617 1265.2 10363.6 456.573 907.603 10443.9 739.919 1238.48 10370.4 489.23 971.252 10430 706.009 1190.73 10381.9 540.548 1047.93 10413.4 658.056 1124.82 10396.7 600.281 512.8 10084.5 696.038 803.011 9977.98 423.966 541.385 10072.8 678.809 783.917 9984.9 453.084 587.849 10054.6 647.817 749.294 9997.06 498.906 644.23 10033.8 604.368 700.926 10013.8 552.389 829.945 10412.3 753.585 1217.59 10321.8 453.829 868.463 10403.4 735.022 1191.68 10328.7 486.262 930.66 10389.2 701.374 1145.21 10340.3 537.211 1005.66 10372.4 653.804 1080.86 10355.4 596.489 560.398 10134.1 706.749 867.912 10030.7 429.645 590.772 10122.9 689.265 847.778 10037.6 459.383 640.116 10105.5 657.787 811.21 10049.7 506.146 699.943 10085.5 613.602 760.03 10066.1 560.674 769.167 10348.9 744.831 1140.97 10255.8 449.211 806.088 10339.6 726.484 1116.35 10262.9 481.199 865.812 10324.9 693.267 1071.96 10274.7 531.431 937.927 10307.5 646.354 1010.23 10290.1 589.858 623.954 10199.6 719.788 952.885 10099.8 436.393 656.524 10189 702.008 931.373 10106.8 466.911 709.385 10172.6 669.943 892.309 10118.8 514.867 773.401 10153.5 624.845 837.632 10134.9 570.718 696.72 10274.2 733.108 1048.09 10178 443.191 731.575 10264.3 715.032 1025.02 10185 474.51 788.059 10248.8 682.363 983.226 10197 523.696 856.366 10230.7 636.31 924.865 10212.7 580.927 -355.695 9611.56 -38.9338 -287.696 9879.02 112.093 -351.744 9637.5 -23.4264 -295.427 9859 101.939 -344.477 9679.04 1.21588 -307.407 9824.84 83.9745 -333.997 9729.03 30.4043 -321.076 9779.85 59.3048 -623.247 9569.32 -237.166 -550.907 9827.3 19.3155 -618.784 9595.44 -212.922 -558.668 9809.67 0.0228995 -610.65 9637.12 -173.666 -570.91 9778.61 -33.0574 -599.115 9686.75 -125.827 -585.224 9736.17 -76.7162 -374.655 9604.29 -50.8186 -306.447 9868.7 108.911 -370.667 9630.05 -34.5717 -314.186 9849 98.0051 -363.351 9671.26 -8.70656 -326.18 9815.35 78.8017 -352.824 9720.75 22.0232 -339.871 9770.97 52.5799 -597.049 9567.43 -214.5 -525.522 9823.61 32.7995 -592.631 9593.24 -190.978 -533.237 9805.83 14.3224 -584.602 9634.4 -152.953 -545.377 9774.69 -17.4097 -573.23 9683.44 -106.72 -559.529 9732.43 -59.383 -407.791 9593.13 -72.2972 -339.268 9853.29 101.999 -403.737 9618.64 -54.8133 -347.003 9834.04 89.8393 -396.33 9659.38 -26.9001 -358.998 9801.12 68.567 -385.721 9708.2 6.41387 -372.712 9757.59 39.7469 -554.848 9567.34 -179.638 -484.368 9821.75 52.4939 -550.507 9592.78 -157.332 -492.047 9803.72 35.3485 -542.635 9633.36 -121.368 -504.08 9772.4 5.82058 -531.492 9681.76 -77.8029 -518.037 9730.27 -33.3886 -452.535 9581.15 -102.8 -383.59 9837.45 90.107 -448.391 9606.45 -83.7434 -391.297 9818.68 76.3497 -440.856 9646.8 -53.2183 -403.278 9786.47 52.4347 -430.118 9695.05 -16.5995 -417.022 9743.72 20.2889 -503.947 9571.8 -140.118 -434.374 9826.02 72.9929 -499.703 9597.06 -119.373 -442.053 9807.66 57.4974 -492.006 9637.31 -86.0303 -454.032 9776 30.703 -481.088 9685.39 -45.8277 -467.846 9733.74 -5.06866 -372.888 9235.57 -260.164 -357.496 9598.72 -46.6306 -373.872 9269.96 -240.184 -360.942 9571.67 -62.8077 -374.499 9325.69 -207.721 -365.837 9525.09 -90.526 -373.563 9393.65 -167.994 -370.508 9463.33 -127.043 -634.026 9158.84 -553.731 -625.285 9556.36 -249.077 -636.423 9198.88 -526.819 -629.086 9528.81 -273.83 -639.074 9262.76 -482.521 -634.164 9480.51 -315.432 -640.098 9338.89 -427.249 -638.368 9414.92 -368.879 -391.598 9227.01 -280.276 -376.476 9591.52 -58.8747 -392.693 9261.66 -259.702 -379.96 9564.58 -75.7859 -393.457 9317.8 -226.218 -384.903 9518.06 -104.699 -392.621 9386.19 -185.143 -389.599 9456.19 -142.681 -608.841 9161.51 -522.894 -599.071 9554.63 -226.067 -611.095 9200.96 -496.625 -602.86 9527.38 -250.118 -613.514 9264 -453.399 -607.975 9479.57 -290.577 -614.272 9339.29 -399.492 -612.314 9414.58 -342.61 -424.255 9213.04 -315.293 -409.647 9580.48 -80.9536 -425.533 9248.24 -293.754 -413.193 9553.7 -99.0886 -426.531 9305.23 -258.61 -418.209 9507.24 -129.986 -425.877 9374.48 -215.334 -422.93 9445.11 -170.389 -568.054 9168.31 -474.579 -556.84 9554.71 -190.622 -570.086 9206.78 -449.33 -560.596 9527.81 -213.488 -572.156 9268.43 -407.821 -565.743 9480.6 -252.024 -572.527 9342.33 -356.132 -570.253 9416.48 -301.699 -468.233 9196.28 -362.751 -454.435 9568.6 -112.218 -469.745 9232.4 -340.017 -458.059 9541.94 -131.903 -471.056 9290.7 -302.811 -463.15 9495.45 -165.305 -470.671 9361.27 -256.794 -467.865 9432.87 -208.746 -518.541 9180.32 -418.17 -505.896 9559.27 -150.351 -520.314 9217.59 -394.151 -509.595 9532.59 -171.693 -521.994 9277.55 -354.739 -514.736 9485.86 -207.765 -521.961 9349.77 -305.798 -519.383 9422.6 -254.444 1401.29 13730.6 -2232.52 2105.72 15343.5 -2332.6 1470.11 13859.9 -2241.3 2055.42 15198 -2326.58 1580.96 14077.6 -2256.6 1967.82 14960.3 -2314.7 1714.7 14358.1 -2276.45 1849.91 14666.2 -2297.17 4214.16 14899.8 -7259.37 3493.72 18629.3 -7232 4169.18 15221.8 -7286.62 3569.19 18319.3 -7264.86 4087.31 15754.9 -7320.1 3689.65 17801 -7306.55 3971.34 16425.5 -7341.09 3832.1 17140.3 -7336.56 1498.54 13791.8 -2369.17 2183.11 15482.4 -2489.72 1566.56 13927.2 -2380.34 2135.16 15329.6 -2482.67 1675.64 14155 -2399.37 2051.28 15080.1 -2468.79 1806.41 14448.8 -2423.48 1937.66 14771.7 -2448.16 3678.41 14504.8 -6586.93 3122.62 17940.8 -6576.22 3646.02 14799.1 -6611.71 3182.49 17652.1 -6603.63 3585.54 15287 -6642.64 3277.78 17171.1 -6638 3497.54 15902.4 -6663.2 3389.65 16560.5 -6661.75 1667.75 13813.9 -2750.26 2249.45 15675.4 -2878.29 1727.77 13963.4 -2764.07 2210.48 15507.6 -2872.47 1823.09 14214.9 -2786.6 2141.61 15233.4 -2859.91 1935.75 14538.7 -2813.63 2046.95 14894.2 -2839.64 2979.9 14072.9 -5573.95 2694.5 17078.3 -5594.71 2968.67 14326.6 -5595.36 2729.59 16821.1 -5613.41 2944.02 14748.5 -5623.18 2784.42 16395.1 -5635.78 2902.64 15282.9 -5644.24 2846.49 15857.9 -5648.81 1935.9 13785.9 -3462.75 2293.21 15935.6 -3568.87 1977.24 13960.6 -3478.73 2272.92 15743.9 -3568.49 2041.1 14253.6 -3503.05 2235.54 15429.9 -3563.69 2113.49 14629.4 -3529.24 2181.22 15040 -3550.74 2364.32 13826.5 -4458.55 2407.25 16373.8 -4522.44 2379.58 14037.4 -4476.86 2413.51 16151 -4531.03 2399.63 14389.6 -4502.44 2420.63 15784.2 -4539.15 2415.92 14838.6 -4525.71 2422.93 15325.4 -4538.76 -460.487 11330.5 478.349 168.853 11556.1 734.182 -414.925 11353.6 504.202 108.993 11541.3 716.612 -335.446 11390.4 545.444 11.6544 11514.7 685.703 -228.7 11434.3 594.575 -107.194 11477.8 643.564 -370.69 11787.4 297.352 389.929 12128.2 561.644 -313.646 11819.5 324.603 319.56 12103 543.904 -215.123 11871.7 367.838 204.383 12059.3 512.537 -84.4415 11935.6 418.947 62.4106 12001.2 469.462 -456.117 11365 468.359 183.742 11597.7 725.628 -409.668 11388.6 494.387 123.006 11582.3 707.983 -328.706 11426.4 535.896 24.1961 11554.7 676.931 -220.07 11471.6 585.322 -96.5333 11516.4 634.582 -381.534 11743.5 318.198 366.694 12071.2 582.782 -325.606 11774.6 345.41 297.286 12047.1 564.969 -228.919 11825 388.612 183.753 12005.4 533.494 -100.524 11886.7 439.731 43.9363 11949.8 490.313 -447.502 11423.8 449.579 209.871 11669.2 709.038 -399.563 11448.4 475.883 147.691 11652.7 691.284 -316.111 11487.9 517.808 46.4498 11623.2 660.025 -204.317 11535.3 567.69 -77.3994 11582.6 617.36 -398.231 11673.1 350.521 330.184 11980.5 615.049 -344.077 11702.5 377.624 262.322 11958.3 597.162 -250.315 11750.3 420.698 151.431 11919.7 565.587 -125.566 11808.5 471.74 15.0697 11867.7 522.329 -434.212 11501.1 421.92 245.57 11764.2 683.717 -384.34 11527.1 448.539 181.571 11746.1 665.861 -297.671 11569 490.931 77.2505 11714 634.4 -181.814 11619.4 541.312 -50.5688 11670.1 591.415 -416.997 11587.9 387.344 287.477 11872.6 650.968 -364.965 11615.7 414.246 221.503 11852.5 633.06 -274.712 11660.4 457.047 113.829 11817.2 601.48 -154.351 11714.6 507.843 -18.3386 11769.5 558.278 2393.89 11775.1 424.618 2623.93 11815.8 7.47361 2428.2 11777.5 391.632 2619.74 11811.5 45.435 2479.31 11782 335.877 2606.23 11804.7 107.396 2533.28 11788.6 263.624 2577.72 11796.5 183.849 2798.31 12782.4 328.504 3026.07 12898.8 5.97111 2832.71 12794 302.173 3021.76 12890.7 34.6961 2883.62 12812.6 258.107 3008.42 12876.5 81.7445 2936.94 12834.9 201.703 2980.52 12857.2 140.164 2428.29 11843 420.002 2659.33 11888.5 7.30781 2462.72 11845.9 387.337 2655 11884 44.8467 2513.97 11851.3 332.143 2641.31 11876.6 106.12 2568.08 11858.9 260.645 2612.64 11867.7 181.73 2762.49 12674.6 340.719 2991.57 12782.3 6.25673 2796.99 12685.1 313.542 2987.14 12774.6 36.1433 2848.07 12702.1 267.994 2973.59 12761.2 85.0664 2901.62 12722.6 209.589 2945.45 12743.2 145.754 2484.86 11961.4 411.047 2717.04 12015.4 7.11628 2519.44 11965.4 379.003 2712.53 12010.4 43.8092 2570.86 11972.3 324.898 2698.63 12002.1 103.711 2625.1 11981.6 254.876 2669.79 11992 177.655 2704.24 12506.6 359.119 2935.07 12601.2 6.58308 2738.86 12515.6 330.667 2930.5 12594.2 38.2365 2790.16 12530.1 282.885 2916.7 12582 90.0092 2844.02 12547.7 221.454 2888.22 12565.9 154.139 2555.86 12122.6 397.287 2788.59 12188.3 6.96493 2590.54 12128 366.195 2783.94 12182.6 42.3278 2642.05 12137.1 313.767 2769.91 12173.2 100.081 2696.32 12148.7 246.023 2741.01 12161.4 171.427 2632.18 12312.1 379.249 2864.42 12391.9 6.81651 2666.87 12319.2 349.405 2859.76 12385.5 40.4224 2718.34 12330.9 299.174 2845.76 12374.8 95.3425 2772.48 12345.5 234.418 2816.99 12360.8 163.27 -2959.98 923.577 -1250.6 -2304.19 2135.02 -1878.34 -2901.18 1012.23 -1304.37 -2356.19 2013.79 -1824.06 -2804.52 1163.77 -1392.89 -2444.24 1821.61 -1734.82 -2684.39 1364.46 -1504.01 -2558.45 1593.41 -1623.16 -6068.91 -664.909 1435.31 -4238.32 -662.716 1222.08 -5926.81 -674.432 1434.84 -4405.69 -675.189 1258.73 -5684.85 -687.416 1427.13 -4679.4 -690.041 1311.62 -5368.66 -697.563 1404.75 -5017.23 -698.982 1364.59 -3078.28 830.062 -1163.06 -2360.33 2008.07 -1796.37 -3015.01 915.343 -1216.15 -2418.4 1888.91 -1740.4 -2910.59 1061.37 -1304 -2516.2 1700.55 -1648.9 -2780.04 1255.43 -1415.11 -2642.19 1477.82 -1535.27 -5481.04 -385.015 1070.53 -3792.79 -228.227 787.388 -5348.1 -381.861 1061.84 -3945.05 -254.265 827.595 -5122.48 -373.599 1041.37 -4194.89 -291.468 887.397 -4829.05 -356.544 1004.51 -4504.79 -328.358 950.896 -3280.28 690.773 -949.326 -2442.97 1773.17 -1570.34 -3208.34 767.714 -999.367 -2512.52 1661.86 -1513.45 -3088.88 899.912 -1083 -2628.88 1486.61 -1421.2 -2938.18 1076.62 -1190.26 -2777.39 1280.67 -1308.09 -4723.67 -27.3761 530.795 -3248.72 366.029 146.185 -4605.29 -5.24887 510.257 -3379.29 318.519 191.777 -4405.25 34.892 471.446 -3594.55 246.329 261.849 -4146.76 92.9964 413.749 -3863.33 166.292 340.707 -3587.34 517.226 -572.447 -2572.38 1421.43 -1145.63 -3502.35 579.689 -615.695 -2658.76 1326.26 -1090.26 -3360.25 687.655 -689.263 -2802.48 1177.21 -1001.54 -3179.38 833.354 -785.855 -2984.38 1003.54 -894.673 -4058.43 286.024 -53.7694 -2821.25 946.029 -543.116 -3957.1 329.189 -86.6594 -2928.7 873.685 -491.904 -3786.72 404.722 -144.479 -3106.65 761.404 -411.214 -3568.11 508.564 -223.621 -3330.34 632.473 -316.585 -473.732 5559.76 -2011.7 -828.245 6817.06 -2060.85 -506.467 5666.36 -2027.76 -799.703 6712.55 -2068.6 -559.334 5844.41 -2049.53 -752.054 6537.11 -2076.52 -623.906 6070.46 -2068.35 -691.005 6312.85 -2077.79 -740.478 4757.77 -2254.74 -1060.34 6184.68 -2398.63 -769.075 4876.73 -2279.83 -1033.41 6063.82 -2399.42 -815.51 5076.2 -2316.23 -989.047 5862.01 -2395.28 -872.784 5330.86 -2352.85 -933.159 5605.79 -2380.49 -491.984 5503.47 -2034.76 -845.763 6774.38 -2090.24 -524.578 5611.1 -2051.46 -817.195 6668.6 -2097.56 -577.238 5790.92 -2074.25 -769.543 6491.09 -2104.72 -641.606 6019.29 -2094.29 -708.558 6264.3 -2104.94 -712.697 4838.28 -2236.58 -1038.49 6249.38 -2370.29 -741.936 4956.12 -2260.75 -1011.22 6130.08 -2371.86 -789.386 5153.64 -2295.62 -966.196 5930.78 -2369.08 -847.846 5405.66 -2330.37 -909.366 5677.56 -2356.04 -523.859 5405.32 -2072.07 -875.779 6698.94 -2138.63 -556.159 5514.64 -2089.87 -847.218 6591.01 -2145.17 -608.382 5697.38 -2114.43 -799.645 6410.04 -2150.98 -672.29 5929.63 -2136.6 -738.875 6179 -2149.37 -668.978 4966.63 -2205.37 -1003.07 6352.3 -2323.22 -699.129 5082.66 -2228.07 -975.318 6235.51 -2326 -748.016 5277.02 -2260.56 -929.404 6040.22 -2325.3 -808.149 5524.8 -2292.37 -871.272 5791.83 -2315 -567.153 5272.73 -2117.49 -915.358 6595.46 -2199.17 -598.954 5384.2 -2136.77 -886.907 6484.76 -2204.64 -650.414 5570.65 -2163.71 -839.61 6299.3 -2208.57 -713.487 5807.84 -2188.74 -779.346 6062.8 -2204.42 -617.694 5119.64 -2164.06 -959.824 6474.39 -2263.57 -648.759 5233.44 -2185.04 -931.646 6360.61 -2267.73 -699.08 5423.93 -2214.74 -884.91 6170.17 -2269.4 -760.863 5666.53 -2243.13 -825.542 5927.63 -2262.23 -1250.65 9686.82 -927.439 -1154.28 10103.2 -483.241 -1245.49 9730.58 -888.335 -1165.44 10076.1 -519.572 -1235.64 9799.72 -823.956 -1182.75 10027.7 -580.489 -1220.96 9880.93 -743.565 -1202.48 9960.52 -658.535 -1489.27 9692.6 -1294.12 -1379.4 10258.2 -790.437 -1483.85 9749.56 -1249.95 -1392.4 10219.3 -831.678 -1473.14 9840.57 -1177.11 -1412.56 10150.9 -900.856 -1456.64 9949.18 -1086 -1435.44 10057.6 -989.491 -1270.87 9689.62 -955.381 -1173.38 10116.5 -506.077 -1265.7 9734.19 -915.866 -1184.77 10088.2 -542.881 -1255.83 9804.64 -850.801 -1202.41 10038.1 -604.561 -1241.08 9887.5 -769.532 -1222.42 9968.96 -683.537 -1469.97 9691.75 -1258.48 -1360.63 10244.4 -760.636 -1464.57 9747.2 -1214.75 -1373.65 10206 -801.373 -1453.94 9835.77 -1142.69 -1393.79 10138.6 -869.698 -1437.6 9941.5 -1052.61 -1416.56 10047.3 -957.249 -1304.82 9692.38 -1002.65 -1205.23 10138.3 -545.183 -1299.63 9738.4 -962.44 -1217.02 10108 -582.699 -1289.69 9811.23 -896.231 -1235.21 10054.8 -645.545 -1274.74 9897.16 -813.521 -1255.73 9982.1 -725.977 -1437.1 9691.59 -1201.69 -1329.15 10222.1 -712.866 -1431.74 9744.73 -1158.69 -1342.11 10184.8 -752.859 -1421.26 9829.5 -1087.88 -1362.06 10119.7 -819.919 -1405.2 9930.64 -999.425 -1384.52 10031.9 -905.835 -1348.1 9693.32 -1064.34 -1245.63 10165.5 -596.863 -1342.87 9741.37 -1023.24 -1257.9 10132.6 -635.191 -1332.78 9817.61 -955.565 -1276.77 10075.3 -699.4 -1317.52 9907.96 -871.037 -1297.98 9997.83 -781.58 -1394.49 9692.53 -1133.6 -1288.98 10194.6 -655.335 -1389.2 9743.05 -1091.52 -1301.68 10159.2 -694.501 -1378.91 9823.45 -1022.25 -1321.19 10097.7 -760.141 -1363.25 9919.13 -935.731 -1343.1 10014.8 -844.194 -330.94 10220.1 591.682 -158.664 10232 741.864 -320.332 10223.8 605.866 -176.231 10234.1 730.666 -300.641 10229 628.879 -204.613 10236.1 711.376 -272.443 10233.8 656.969 -238.696 10236.3 685.805 -432.422 10470.3 620.769 -124.551 10552.8 801.333 -412.829 10480.6 638.875 -156.295 10549.4 788.933 -377.22 10496.4 667.861 -207.072 10542.1 767.063 -327.085 10514.1 702.53 -267.478 10530.2 737.207 -342.33 10234.3 597.099 -158.616 10253.4 749.099 -331.062 10238.7 611.535 -177.371 10254.9 737.849 -310.109 10244.9 634.928 -207.671 10256 718.429 -280.058 10250.9 663.428 -244.054 10254.9 692.615 -425.584 10441.8 620.767 -129.84 10519.4 798.119 -406.996 10451.5 638.518 -160.398 10516.3 785.909 -373.016 10466.5 666.948 -209.319 10509.6 764.389 -324.917 10483.3 700.975 -267.537 10498.4 735.036 -359.76 10260.8 604.713 -157.204 10291.2 760.092 -347.4 10266.1 619.621 -177.949 10291.8 748.748 -324.38 10274 643.724 -211.439 10291.3 729.088 -291.304 10282.1 672.989 -251.608 10288.2 702.829 -413.912 10397.5 619.948 -137.833 10466.5 792.17 -396.834 10406.3 637.092 -166.398 10464 780.223 -365.367 10419.9 664.585 -212.206 10458.4 759.212 -320.508 10435.1 697.552 -266.776 10448.6 730.63 -379.448 10299.2 612.027 -153.185 10343.2 772.278 -365.679 10305.7 627.61 -176.469 10342.7 760.79 -340.038 10315.6 652.73 -213.989 10340.4 740.777 -303.181 10326.2 683.092 -258.893 10334.9 713.87 -398.17 10346.9 617.256 -146.332 10404.3 783.414 -382.779 10354.7 633.631 -172.354 10402.8 771.723 -354.224 10366.5 659.95 -214.181 10398.7 751.246 -313.284 10379.5 691.617 -264.111 10390.8 723.531 -389.201 10140.3 410.487 -335.724 10218.1 584.724 -389.219 10149.2 425.632 -344.917 10213.8 570.303 -387.398 10163 450.649 -358.225 10205.6 546.184 -381.783 10178.8 482.034 -371.612 10193.6 515.404 -593.672 10302.6 394.979 -441.416 10465.2 611.831 -586.128 10319 413.27 -459.311 10454.1 593.359 -571.215 10345.3 443.725 -487.143 10434.6 562.676 -548.274 10376.6 482.345 -518.831 10407.8 523.901 -406.6 10146.8 413.257 -347.406 10232.1 590.014 -406.144 10156.4 428.578 -357.174 10227.1 575.335 -403.559 10171.3 453.902 -371.368 10217.9 550.809 -396.996 10188.4 485.701 -385.787 10204.7 519.548 -574.756 10281.7 399.791 -434.081 10436.9 612.007 -567.951 10297.5 417.683 -450.929 10426.4 593.907 -554.433 10322.7 447.47 -476.977 10407.8 563.858 -533.495 10352.6 485.246 -506.398 10382.4 525.903 -434.933 10160.7 415.965 -365.323 10258 597.388 -433.594 10171.4 431.603 -376.062 10252.1 582.226 -429.576 10188.1 457.482 -391.803 10241.3 556.936 -421.225 10207.4 490.04 -408.083 10225.9 524.776 -544.65 10250 406.59 -421.674 10393 611.491 -539.062 10264.7 423.891 -436.97 10383.4 594.024 -527.773 10288.1 452.676 -460.37 10366.5 565.026 -509.939 10315.8 489.157 -486.399 10343.2 528.4 -470.223 10183.7 416.204 -385.651 10295.9 604.36 -467.623 10195.7 432.295 -397.695 10288.8 588.505 -461.516 10214.6 458.975 -415.579 10276 562.115 -450.525 10236.6 492.631 -434.536 10258 528.653 -508.234 10214.9 412.816 -405.126 10343 609.187 -504.137 10228.3 429.479 -418.734 10334.6 592.516 -495.479 10249.6 457.165 -439.253 10319.7 564.817 -481.178 10274.5 492.185 -461.579 10299 529.785 -55.4474 10441.9 168.274 -50.6435 10060.8 369.928 -59.869 10422.6 184.953 -49.713 10108.4 351.102 -62.8927 10386 212.359 -51.1133 10180.2 321.017 -61.1776 10330.8 246.93 -55.8657 10259.3 284.634 -189.751 10179.6 323.647 -124.81 10052.7 600.799 -194.719 10177.7 348.739 -136.431 10073.9 579.352 -196.989 10171.3 389.958 -154.906 10104.1 542.649 -190.756 10157.4 441.107 -175.209 10134.2 494.537 -63.8921 10410.4 183.311 -58.0743 10051.4 394.527 -68.6701 10392.3 201.014 -57.8841 10096.3 375.3 -72.1821 10357.8 230.107 -60.161 10164.1 344.303 -70.8289 10305.9 266.721 -65.4737 10238.6 306.397 -175.062 10193.2 312.052 -118.668 10046.1 585.463 -180.168 10189.6 336.658 -128.888 10069.1 564.066 -182.876 10180.6 377.104 -145.348 10102.3 527.596 -177.601 10163.1 427.365 -163.627 10136.1 480.007 -79.0332 10362 207.436 -69.6027 10039.9 433.054 -84.2299 10346 226.682 -70.7734 10080.6 413.238 -88.261 10315.5 258.323 -74.747 10141.8 380.877 -87.1386 10269.2 298.026 -81.3258 10208.9 340.682 -152.162 10219.1 292.232 -108.806 10037.6 558.518 -157.473 10212.8 315.97 -116.842 10063.8 537.274 -160.828 10199.2 355.011 -130.186 10102.2 501.319 -156.975 10175.9 403.63 -145.373 10142.3 454.773 -100.244 10307.9 236.511 -83.0356 10032.3 477.875 -105.702 10294.8 257.455 -86.1625 10067.9 457.446 -109.928 10269.5 291.904 -92.7045 10121.2 423.627 -108.496 10230.6 335.009 -101.46 10179.1 380.938 -125.72 10258.1 266.078 -96.5385 10031.7 521.552 -131.195 10248.5 288.576 -102.061 10062.3 500.626 -135.15 10229.1 325.587 -111.877 10107.7 465.555 -132.731 10198.2 371.783 -123.65 10156.2 420.659 56.2178 9384.65 393.053 130.416 9022.99 -2.01574 65.7015 9328.79 375.723 129.048 9029.37 49.9397 80.8193 9246.75 341.054 124.08 9049.74 127.768 98.1681 9161.71 286.036 113.616 9093.06 211.973 207.596 9708.08 577.39 425.5 9499.41 4.04568 236.71 9675.53 548.306 422.92 9504.06 72.4255 282.722 9628.28 491.925 410.031 9516.52 177.816 334.844 9579.98 406.292 380.337 9541.29 296.609 64.8112 9413.41 413.604 151.182 9072.11 -1.34094 75.8936 9360.6 394.987 149.596 9078.13 52.4754 93.5282 9283.08 357.928 143.832 9097.32 133.411 113.726 9202.83 299.521 131.682 9138.12 221.492 190.486 9681.45 566.256 395.337 9465.2 3.75077 217.75 9647.72 537.925 392.762 9469.86 71.1676 260.856 9598.7 482.911 380.474 9482.64 174.927 309.731 9548.52 399.169 352.468 9508.31 291.65 80.8489 9460.49 445.572 187.157 9149.25 -0.266631 94.5741 9412.18 424.951 185.263 9154.8 56.435 116.37 9341.4 384.174 178.247 9172.28 142.194 141.275 9268.25 320.494 163.358 9209.38 236.296 163.826 9637.06 546.044 347.684 9406.78 3.14384 188.141 9601.16 519.047 345.151 9411.49 68.7965 226.609 9548.87 466.472 333.871 9424.88 169.577 270.29 9495.23 386.132 308.6 9452.22 282.531 104.254 9518.9 482.28 235.53 9239.66 0.993439 121.333 9475.45 459.353 233.337 9244.77 60.9907 148.414 9411.9 414.297 224.844 9260.54 152.267 179.285 9346.38 344.555 206.564 9293.74 253.273 133.234 9580.48 517.296 291.436 9329.13 2.19599 153.99 9541.31 492.151 289.022 9333.97 65.3126 186.859 9484.14 442.987 279.051 9348.34 161.825 224.251 9425.35 367.443 257.166 9378.18 269.4 135.22 7306.59 -826.013 -118.121 8034.98 -728.865 111.935 7370.87 -824.426 -97.7302 7976.88 -743.569 74.241 7477.14 -818.953 -63.6479 7878.33 -765.399 28.0901 7610.16 -807.082 -19.9403 7750.53 -788.338 -24.447 6893.92 -1208.55 -327.083 7758.37 -1135.01 -54.2684 6968.54 -1210 -304.686 7687.97 -1148.87 -101.778 7092.68 -1209.19 -266.433 7569.13 -1168.76 -158.564 7249.32 -1202.51 -215.909 7416.07 -1188.37 124.291 7279.43 -855.787 -132.993 8015.51 -759.298 100.453 7344.26 -854.376 -112.499 7956.6 -774.038 61.9266 7451.46 -849.136 -78.1432 7856.78 -795.902 14.8779 7585.72 -837.461 -33.9168 7727.52 -818.824 -8.56686 6936.29 -1172.37 -307.317 7784.96 -1095.44 -38.0461 7009.57 -1173.41 -285.283 7715.76 -1109.41 -85.0104 7131.42 -1171.95 -247.602 7599 -1129.58 -141.13 7285.13 -1164.51 -197.763 7448.75 -1149.69 104.951 7230.88 -906.014 -159.167 7981.21 -811.162 80.1207 7296.71 -904.906 -138.516 7920.82 -825.895 40.1124 7405.64 -900.088 -103.72 7818.68 -847.704 -8.51214 7542.22 -888.818 -58.6231 7686.7 -870.472 16.985 7003.89 -1114.22 -274.953 7828.26 -1032.25 -11.7457 7075.19 -1114.67 -253.388 7761 -1046.41 -57.5612 7193.63 -1112.28 -216.51 7647.61 -1067.04 -112.372 7342.92 -1103.75 -167.745 7501.74 -1087.91 78.4713 7163.55 -971.196 -194.639 7934.61 -879.387 52.3159 7230.84 -970.507 -173.781 7872.16 -894.008 10.341 7342.32 -966.315 -138.413 7766.72 -915.578 -40.3571 7482.34 -955.712 -92.1859 7630.79 -937.938 47.6909 7084.17 -1043.72 -235.24 7881.02 -956.401 20.1321 7153.35 -1043.56 -214.086 7816.15 -970.812 -23.9265 7268.12 -1040.2 -178.017 7706.76 -991.953 -76.8318 7412.54 -1030.54 -130.519 7565.98 -1013.64 443.818 6551.46 -735.803 146.671 7275.38 -826.31 416.21 6608.08 -750.589 170.384 7211.04 -825.885 371.667 6704.89 -772.272 210.072 7104.61 -822.115 317.363 6831.5 -794.535 261.093 6971.48 -811.974 327.937 6012.46 -1043.64 -9.68647 6857.8 -1207.31 299.776 6079.17 -1067.45 20.4763 6783.3 -1203.37 253.17 6192.96 -1102.91 69.5807 6659.77 -1192.69 194.184 6341.33 -1140.51 130.257 6504.82 -1171.87 436.336 6515.86 -759.796 136.02 7247.95 -855.987 408.719 6573.26 -775.273 160.274 7183.05 -855.323 364.058 6671.35 -798.031 200.744 7075.61 -851.042 309.418 6799.53 -821.513 252.55 6941.11 -840.065 340.324 6068.67 -1014.97 6.02379 6900.81 -1171.33 312.396 6134.45 -1037.91 35.845 6827.6 -1167.82 266.194 6246.62 -1072.06 84.4111 6706.17 -1157.92 207.752 6392.79 -1108.18 144.454 6553.73 -1138.19 423.001 6452.63 -800.398 117.183 7198.93 -906.052 395.404 6511.36 -817.043 142.41 7133.01 -904.993 350.583 6611.64 -841.607 184.28 7023.78 -899.87 295.388 6742.51 -867.12 237.48 6886.85 -887.514 359.767 6157.6 -968.556 31.1989 6969.35 -1113.47 332.087 6221.88 -990.104 60.2762 6898.06 -1110.6 286.388 6331.44 -1022.14 107.721 6779.74 -1101.85 228.752 6474.12 -1055.94 166.539 6631.14 -1083.81 404.472 6365.31 -853.188 91.3765 7130.9 -971.017 376.92 6425.79 -871.357 117.908 7063.52 -969.437 331.908 6528.94 -898.258 161.651 6951.76 -963.228 275.994 6663.4 -926.374 216.71 6811.48 -949.116 382.424 6262.32 -911.843 61.3102 7050.63 -1043.27 354.872 6324.74 -931.718 89.227 6981.4 -1041.07 309.586 6431.13 -961.219 134.971 6866.5 -1033.62 252.836 6569.7 -992.214 192.034 6722.19 -1017.55 538.281 7138.06 -232.781 79.6114 8468.92 -172.645 488.117 7240.49 -237.084 112.194 8359.95 -187.348 411.309 7420.63 -240.416 167.107 8171.74 -207.733 323.983 7660.91 -237.791 239.64 7926.07 -226.413 511.723 6921.56 -461.258 27.674 8253.51 -401.805 460.787 7024.56 -474.729 64.0656 8145.89 -425.054 382.224 7205.81 -489.33 124.515 7958.97 -456.273 291.753 7447.46 -494.114 202.745 7713.53 -482.508 537.962 7122.73 -251.709 78.1252 8449.53 -189.643 487.911 7224.83 -256.651 111.038 8340.99 -205.256 411.209 7404.46 -260.691 166.397 8153.45 -226.865 323.869 7644.08 -258.353 239.316 7908.52 -246.565 515.59 6942.89 -440.986 34.8418 8270.62 -379.541 464.886 7045.46 -453.532 70.8789 8163.19 -402.232 386.719 7225.99 -466.921 130.781 7976.69 -432.813 296.775 7466.76 -470.734 208.381 7731.94 -458.765 536.519 7095.97 -283.198 74.3906 8417.76 -218.771 486.576 7197.69 -289.257 107.836 8309.81 -235.812 409.942 7376.7 -294.573 163.927 8123.13 -259.321 322.477 7615.56 -292.854 237.511 7879.13 -280.551 521.482 6977.16 -407.836 45.6779 8299.57 -343.863 471.099 7079.17 -418.91 81.1548 8192.34 -365.564 393.491 7258.77 -430.393 140.2 8006.33 -394.977 304.313 7498.38 -432.735 216.835 7762.44 -420.32 533.169 7059.86 -323.234 67.4716 8378.36 -257.295 483.231 7161.36 -330.806 101.573 8270.92 -276.002 406.493 7340.04 -337.916 158.589 8084.91 -301.682 318.687 7578.5 -337.23 233.07 7841.55 -324.564 527.855 7018.35 -366.686 57.4118 8337.07 -300.916 477.761 7119.95 -376.008 92.2154 8229.87 -321.248 400.681 7298.83 -385.271 150.253 8044.1 -348.985 312.278 7537.55 -386.003 225.789 7800.78 -373.299 -95.4025 9655.32 -2.13349 -19.6474 10541.8 31.7071 -91.0959 9733.01 6.59131 -30.1438 10461.9 36.1656 -83.8219 9858.31 19.2437 -45.174 10333.7 39.9874 -73.694 10012.7 31.433 -60.5727 10177.4 38.9651 -186.929 9410.92 -73.0684 -103.049 10136.3 91.551 -185.729 9480.28 -50.0458 -116.921 10079 87.7677 -181.607 9590.94 -15.093 -136.858 9983.42 76.8412 -172.322 9724.06 22.8468 -156.854 9860.46 55.1779 -100.674 9631.27 -5.05811 -24.072 10502.8 36.8401 -96.696 9708.13 4.77919 -34.9427 10424.9 41.012 -89.764 9831.99 19.0905 -50.5062 10299.7 44.2049 -79.7429 9984.33 33.0534 -66.3895 10146.4 42.1061 -176.443 9428.15 -63.7164 -93.0678 10165.1 86.782 -175.031 9498.04 -42.0081 -106.732 10106.1 84.1075 -170.697 9609.65 -9.1809 -126.359 10008 75.0507 -161.361 9744.21 26.1638 -146.054 9882.62 55.8096 -110.385 9592.62 -11.1188 -32.4297 10439.5 45.4322 -106.921 9668.13 0.608527 -43.8829 10365 48.9556 -100.52 9789.65 17.7728 -60.2807 10244.6 50.8442 -90.6561 9938.65 34.8536 -76.9286 10096.3 46.6754 -160.234 9458.33 -49.6575 -77.7835 10215.7 78.6191 -158.453 9529.19 -30.0915 -91.0737 10153.7 77.619 -153.752 9642.55 -0.700519 -110.147 10051.4 71.415 -144.329 9779.71 30.5004 -129.307 9921.67 55.9231 -124.428 9546.09 -20.9804 -44.8682 10362.5 56.3427 -121.563 9619.97 -6.7883 -56.9908 10292.2 58.7419 -115.773 9738.64 14.1564 -74.355 10177.9 58.522 -106.077 9883.56 35.4836 -91.899 10035.9 51.2381 -141.797 9499.15 -34.3953 -60.661 10284.2 67.9835 -139.516 9571.4 -17.4654 -73.4235 10218.2 68.8021 -134.316 9687.2 7.74991 -91.72 10110.2 65.7547 -124.772 9827.95 34.0094 -110.141 9974.75 54.515 2535.49 17233 -2265.65 2637.07 18898.9 -1885.51 2554.43 17381.1 -2246.94 2636.58 18765.1 -1931.43 2580.84 17624.7 -2210.33 2633.29 18539.3 -2002.1 2605.98 17928.2 -2154.13 2623.87 18247.8 -2081.42 2418.53 22271.3 -6306.39 1445.79 24904.3 -4703.38 2330.69 22527.1 -6195.29 1521.01 24714 -4862.9 2186.12 22939.2 -5999.86 1649.79 24384 -5118.86 2006.47 23437 -5733.89 1818.74 23941.8 -5425.89 2573.18 17459.3 -2417.29 2634.5 19188.5 -2004.13 2588.56 17613.6 -2396.7 2637.21 19050.3 -2053.72 2609.09 17867.1 -2356.57 2639.36 18816.6 -2130.15 2626.87 18182.7 -2295.22 2637 18514.5 -2216.14 2243.72 21374.7 -5770.53 1421.55 23923.9 -4334.41 2170.41 21619.4 -5672.19 1485.8 23736.9 -4478.64 2049.3 22014.7 -5498.65 1595.6 23413.8 -4709.55 1898.04 22494.2 -5261.48 1739.19 22983.1 -4985.63 2526.41 17828.3 -2757.29 2501.24 19678.7 -2253.44 2533.38 17994.7 -2730.39 2510.19 19532.1 -2312.02 2540.38 18267.7 -2679.18 2523.18 19283.7 -2402.89 2541.8 18606.5 -2602.75 2535.35 18961.6 -2506.24 2116.75 20196.2 -4972.6 1514.42 22602.9 -3786.26 2065.07 20423.2 -4893.47 1562.98 22422.5 -3907.67 1978.68 20791.5 -4752.81 1645.5 22112.6 -4101.2 1869.17 21240.9 -4558.81 1752.41 21702.6 -4331.06 2355.07 18357.8 -3329.76 2185.13 20381.3 -2655.91 2347.28 18542.1 -3290.12 2203.96 20223.2 -2730.43 2330.8 18843.5 -3216.97 2234.33 19954.5 -2847.22 2304.36 19215.9 -3111.5 2270.23 19604.2 -2982.31 2166.45 19134.1 -4104.29 1796.22 21355.5 -3190.27 2138.14 19339.8 -4046.19 1828.65 21185.3 -3286.82 2089.05 19674.9 -3941.46 1882.97 20894.5 -3439.65 2024 20086.6 -3794.55 1951.61 20512.8 -3619.19 1760.41 13610.6 165.699 2529.39 14134.1 139.875 1832.88 13656.5 167.035 2471.93 14091.6 145.325 1950.54 13732.3 167.681 2373 14020 153.125 2094.27 13827.2 165.823 2241.94 13927.8 160.686 2134.04 15154.3 -742.29 2716.81 16184.8 -643.076 2193.56 15244.3 -736.971 2676.7 16100.3 -654.977 2288.02 15393 -727.022 2606.46 15958.5 -673.196 2399.9 15579.2 -712.289 2510.99 15776.8 -693.564 1798.23 13728.6 99.8404 2552.17 14287.4 82.4991 1869.67 13777.5 101.409 2496.13 14241.9 86.7322 1985.47 13858.3 102.639 2399.53 14165.4 92.718 2126.64 13959.6 101.873 2271.36 14066.9 98.3537 2115.63 15017.4 -648.055 2719.59 15999.8 -563.771 2176.74 15103.2 -643.356 2677.6 15919.2 -573.75 2273.99 15244.9 -634.702 2604.22 15784 -589.046 2389.57 15422.4 -622.076 2504.79 15610.8 -606.202 1860.32 13931.9 -12.3786 2590.4 14553.6 -15.4149 1930.15 13986.2 -10.4336 2536.61 14502.8 -13.2505 2043.04 14076 -8.24006 2443.74 14417.5 -10.3437 2180.16 14188.6 -7.17805 2320.18 14307.9 -7.97039 2075.55 14788.8 -501.481 2710.29 15692.1 -439.165 2138.91 14867.6 -497.612 2665.5 15618 -446.23 2240.11 14997.9 -490.756 2587.48 15493.6 -457.121 2361.01 15161.1 -481.158 2482.26 15334.4 -469.479 1936.51 14200.9 -160.735 2637.24 14908.4 -144.787 2004.39 14262.7 -158.293 2586.25 14850.5 -145.367 2113.72 14364.8 -154.821 2497.99 14753.2 -146.547 2245.87 14492.8 -151.333 2380.1 14628.5 -148.504 2012.96 14501.5 -330.484 2681.25 15307.9 -292.113 2078.66 14571.9 -327.402 2633.33 15241.8 -295.881 2184.04 14688.2 -322.358 2550.15 15130.8 -301.822 2310.69 14834 -315.959 2438.53 14988.6 -308.852 3074.11 14606.5 59.4371 3245.54 14872.2 0.412522 3101.79 14637.1 52.7387 3243.56 14857.5 4.42244 3142.13 14684.6 42.5752 3235.29 14829.9 11.239 3183.35 14738.7 31.1821 3215.77 14789.4 20.3711 3051.52 17094.3 -393.224 3125.46 17538.9 -10.283 3066.28 17151.4 -366.09 3125.83 17519 -46.6884 3086.57 17237.6 -318.172 3124.39 17479 -106.066 3105.43 17332 -253.146 3118.28 17416 -178.779 3079.48 14791.4 25.9889 3241.93 15071.4 -0.228394 3106.03 14823.9 21.7773 3240.25 15056.1 0.745519 3144.61 14874.3 15.8878 3232.69 15027.4 2.60559 3183.83 14931.5 10.1343 3214.47 14984.9 5.6381 3076.14 16869.7 -348.452 3159.54 17301.1 -9.52276 3092.15 16924.4 -324.749 3159.68 17281.2 -41.9777 3114.4 17007.3 -282.701 3157.58 17241.8 -94.8553 3135.43 17098.5 -225.353 3150.18 17180.1 -159.476 3089.73 15113.2 -31.2161 3238.14 15418.3 -1.55976 3114.47 15149.2 -31.1924 3236.88 15402.1 -5.75145 3150.24 15204.7 -29.8002 3230.39 15371.3 -12.3277 3186.31 15267.3 -25.9442 3214.14 15325.4 -19.6823 3099.74 16495.8 -277.383 3197.45 16903.2 -8.04313 3117.68 16546.6 -259.067 3197.29 16883.7 -34.2086 3142.92 16623.9 -226.247 3194.24 16845.6 -76.7544 3167.27 16709.4 -180.999 3184.9 16786.6 -128.544 3101.99 15543.5 -106.813 3233.73 15881.8 -3.57681 3124.53 15584.1 -101.203 3232.88 15864.4 -14.5536 3156.89 15646.4 -90.2063 3227.58 15831 -32.2197 3189.15 15716.4 -73.6791 3213.64 15780.7 -53.2437 3108.27 16028.8 -192.551 3222.65 16403.4 -5.92414 3128.48 16074.6 -180.584 3222.16 16384.8 -24.5532 3157.22 16144.6 -158.662 3218.03 16348.8 -54.743 3185.45 16222.6 -127.74 3206.44 16293.8 -91.2331 -1782.12 3896.96 -2495.03 -1498.63 5758.78 -2822.74 -1752.8 4047.54 -2532.77 -1516.76 5597.88 -2807.06 -1705.94 4302.57 -2592.28 -1549.52 5330.03 -2775.22 -1650.3 4632.1 -2660.99 -1595.53 4991.85 -2725.31 -2054.76 -237.55 459.211 -96.6875 683.436 -656.706 -1882.78 -179.972 377.556 -256.583 583.661 -549.716 -1599.26 -76.185 236.183 -525.069 427.215 -376.739 -1244.73 69.8748 47.5293 -869.445 245.506 -166.7 -1768.98 3755.21 -2448.85 -1443.12 5625.87 -2821.27 -1734.95 3906 -2490.32 -1463.77 5463.7 -2801.81 -1680.73 4161.62 -2556.08 -1501.15 5193.95 -2763.65 -1616.61 4492.31 -2632.78 -1553.76 4853.77 -2705.72 -1847.04 349.823 32.4122 -150.191 1365.53 -988.751 -1696.21 417.564 -44.4181 -286.85 1260.28 -893.166 -1448.25 537.529 -176.485 -517.198 1093.5 -737.677 -1139.43 702.633 -351.053 -814.132 896.71 -547.243 -1711.81 3425.36 -2263.29 -1281.19 5234.33 -2714.96 -1667.36 3570.08 -2310.32 -1309.27 5076.12 -2687.56 -1596.48 3815.84 -2385.78 -1359.56 4813.69 -2636.71 -1512.45 4134.5 -2475.56 -1429.58 4483.83 -2563.65 -1642.33 1197.52 -599.407 -320.992 2381.19 -1475.42 -1522.01 1282.61 -668.926 -424.418 2265.66 -1397.43 -1325.3 1430.47 -786.87 -600.111 2079.83 -1268.89 -1082.31 1628.87 -939.986 -828.915 1855.74 -1108.57 -1618.77 2860.96 -1866.51 -987.59 4501.87 -2433.27 -1556.16 2990.09 -1920.23 -1031.6 4355.52 -2392.75 -1455.64 3210.07 -2007.93 -1108.84 4114.18 -2321.57 -1334.96 3496.75 -2115.4 -1213.72 3813.13 -2225.32 -1566.13 2087.44 -1278.96 -626.988 3495.67 -1993.14 -1477.31 2194.61 -1340.34 -697.058 3365.41 -1934.86 -1333.3 2378.44 -1442.61 -817.668 3152.86 -1836.46 -1157.66 2620.56 -1571.91 -977.466 2891.36 -1709.78 -1581.15 6816.1 -2628.54 -1699.29 8233.67 -2336.12 -1595.17 6944.07 -2612.27 -1692.54 8122.86 -2369.64 -1616.54 7154.25 -2581.76 -1680.24 7934.14 -2421.69 -1640.4 7415.08 -2536.96 -1662.5 7687.84 -2481.08 -1664.93 5785.2 -2784.39 -1662.4 7464.76 -2691.46 -1664.89 5931.97 -2786.81 -1662.15 7329.02 -2710.29 -1664.52 6175.02 -2786.85 -1662.18 7099.63 -2736.84 -1663.71 6480.18 -2779.54 -1662.77 6803.63 -2762.19 -1600.36 6712.61 -2651.98 -1712.86 8154.39 -2374.24 -1613.69 6842.29 -2637.14 -1706.38 8041.21 -2406.73 -1633.98 7055.45 -2608.94 -1694.61 7848.64 -2456.97 -1656.65 7320.32 -2566.95 -1677.69 7597.73 -2513.9 -1666.58 5872.19 -2789.85 -1678.85 7536.49 -2677.87 -1668.14 6017.95 -2790.58 -1677.71 7402.21 -2698.2 -1670.29 6259.15 -2787.83 -1676.09 7175.23 -2727.31 -1672.42 6561.75 -2777.02 -1674.32 6882.2 -2756 -1625.92 6552.65 -2689.28 -1727.06 8035.36 -2436.92 -1637.83 6685.26 -2676.88 -1721.12 7918.2 -2467.62 -1655.99 6903.53 -2652.67 -1710.43 7719.23 -2514.71 -1676.29 7175.27 -2615.51 -1695.17 7460.55 -2567.37 -1666.84 6010.25 -2787.1 -1701.75 7643.91 -2644.34 -1670.94 6153.84 -2785.05 -1699.3 7512.51 -2667.03 -1677.03 6391.24 -2777.7 -1695.24 7290.27 -2700.2 -1683.71 6688.63 -2761.19 -1689.95 7003.09 -2734.22 -1648.25 6366.91 -2731.56 -1731.61 7901.48 -2513.04 -1658.01 6503.29 -2722.41 -1726.57 7779.37 -2541.32 -1672.86 6728.1 -2703.47 -1717.59 7572.36 -2584.17 -1689.46 7008.62 -2672.72 -1704.96 7303.89 -2631.12 -1661.87 6180.38 -2767.29 -1722.08 7768.6 -2587.09 -1668.89 6320.68 -2761.77 -1718.24 7641.45 -2612.58 -1679.51 6552.31 -2748.73 -1711.58 7426.19 -2650.57 -1691.34 6841.96 -2725.21 -1702.42 7147.6 -2691.01 -1709.23 9476.11 -1823.14 -1595.69 10301.9 -1260.56 -1704.46 9558.51 -1777.18 -1609.9 10244.8 -1310.11 -1694.39 9690.58 -1700.08 -1631.71 10144.2 -1391.69 -1677.99 9848.79 -1601.26 -1656.04 10007.3 -1493.55 -1623.75 9041.28 -2322.32 -1509.87 10217.9 -1832.21 -1617.44 9151.43 -2284.37 -1522.39 10129.1 -1877.27 -1605.34 9330.56 -2219.72 -1542.17 9976.72 -1950.77 -1587.42 9549.83 -2135.22 -1565.26 9775.67 -2041.25 -1720.87 9430.44 -1870.19 -1605.75 10294.9 -1308.29 -1716.05 9515.65 -1824.61 -1620.29 10233.7 -1358.18 -1705.91 9652.48 -1748.04 -1642.53 10126.9 -1440.12 -1689.4 9816.98 -1649.66 -1667.22 9982.75 -1542.13 -1647.21 9093.89 -2292.05 -1532.72 10257.4 -1789.23 -1641.18 9202.4 -2252.99 -1545.81 10168.8 -1835.48 -1629.49 9378.88 -2186.58 -1566.25 10017.3 -1910.86 -1611.89 9595.07 -2099.9 -1589.75 9818.15 -2003.59 -1731.07 9366.3 -1948.8 -1614.34 10293.8 -1390.08 -1726.17 9456.07 -1903.94 -1629.21 10226.1 -1440.24 -1715.92 9600.68 -1828.42 -1651.85 10109.2 -1522.38 -1699.27 9775.49 -1731.06 -1676.88 9953.09 -1624.21 -1680.12 9163.89 -2233.37 -1564.57 10295.2 -1712.84 -1674.46 9269.26 -2192.73 -1578.42 10208.6 -1760.66 -1663.28 9440.51 -2123.77 -1599.79 10060.8 -1838.57 -1646.07 9650.27 -2033.99 -1623.87 9866.91 -1934.4 -1729.17 9299.27 -2047.12 -1611.84 10302.5 -1496.14 -1724.11 9394.56 -2003.36 -1626.74 10227.2 -1546.14 -1713.68 9548.63 -1929.5 -1649.43 10098.3 -1627.79 -1696.9 9735.98 -1833.95 -1674.47 9927.91 -1728.61 -1710.81 9233.18 -2147.92 -1594.07 10309.1 -1610.1 -1705.49 9333.97 -2105.61 -1608.61 10227 -1659.3 -1694.76 9497.46 -2034.01 -1630.82 10086.9 -1739.49 -1677.82 9697.21 -1941.07 -1655.5 9903.06 -1838.24 136.193 10173.1 802.681 471.757 10061.5 697.312 163.89 10165.8 800.086 443.726 10073.6 712.679 210.703 10152.9 793.172 396.493 10092.4 735.52 270.889 10135.2 779.795 336.019 10114.2 759.673 354.841 10538.4 874.811 848.726 10457 767.21 396.373 10532.6 873.134 808.17 10465.7 783.879 466.204 10522.8 867.289 739.551 10479.1 808.422 555.38 10509.7 854.455 651.193 10494.6 833.91 150.245 10199 810.376 498.809 10090.4 703.998 178.997 10191.9 807.782 469.662 10102.2 719.514 227.595 10179.3 800.827 420.565 10120.5 742.586 290.088 10162.1 787.325 357.733 10141.7 766.993 331.734 10501 869.94 811.013 10416.8 762.119 371.871 10494.9 868.153 771.489 10425.7 778.688 439.429 10484.7 862.155 704.692 10439.5 803.124 525.827 10471.1 849.181 618.805 10455.4 828.574 175.437 10243.8 822.397 545.529 10139.7 714.823 205.956 10236.8 819.854 514.556 10151 730.562 257.539 10224.7 812.907 462.403 10168.5 753.965 323.87 10208.2 799.295 395.682 10188.6 778.712 295.236 10442 861.464 751.041 10353.6 753.273 333.191 10435.7 859.49 713.236 10362.9 769.683 397.169 10424.9 853.231 649.438 10377.3 793.947 479.151 10410.6 840.033 567.575 10394.1 819.33 210.591 10303.6 836.346 608 10204.9 727.991 243.401 10296.8 833.936 574.765 10215.4 743.973 298.833 10285.2 827.119 518.798 10231.9 767.716 370.082 10269.4 813.519 447.184 10250.9 792.77 252.425 10372.6 849.93 679.63 10279.2 741.437 287.812 10366 847.727 644.014 10289 757.648 347.545 10354.7 841.164 583.989 10304.4 781.683 424.228 10339.7 827.722 507.106 10322.2 806.947 -150.017 10230.7 747.156 122.928 10176.5 803.515 -131.445 10227.9 757.389 95.9505 10183.3 804.399 -98.3874 10222.7 772.215 52.4054 10193.5 803.435 -52.9503 10214.8 787.04 -0.130663 10204.7 797.987 -108.854 10554.2 807.119 334.88 10541.2 875.133 -75.655 10556.7 818.343 293.952 10546.3 874.967 -18.1937 10559.4 834.793 226.841 10553 872.308 58.148 10560.5 851.649 143.964 10558.3 864.782 -149.388 10252.4 754.41 136.475 10202.4 811.202 -129.633 10250.2 764.682 108.454 10209 812.063 -94.6583 10245.7 779.576 63.1667 10218.8 811.052 -46.8709 10238.8 794.491 8.39847 10229.4 805.529 -114.74 10520.6 803.818 312.454 10503.9 870.318 -82.8118 10522.7 814.875 272.95 10509.2 870.266 -27.5593 10524.9 831.071 208.241 10516.4 867.793 45.8542 10525.2 847.643 128.423 10522.3 860.504 -146.998 10290.7 765.436 160.818 10247 823.187 -125.243 10289.3 775.778 131.04 10253.4 823.97 -87.0139 10286.2 790.799 82.8007 10262.7 822.82 -35.2203 10280.6 805.886 24.2307 10272.4 817.117 -123.734 10467.4 797.753 277.021 10445 861.94 -93.9171 10468.9 808.581 239.741 10450.7 862.085 -42.2851 10470.1 824.423 178.795 10458.4 859.926 26.4025 10469.3 840.583 103.8 10465.3 853.024 -141.722 10343.2 777.675 194.869 10306.8 837.058 -117.386 10342.8 788.126 162.797 10312.9 837.678 -74.9223 10341.2 803.343 110.68 10321.7 836.266 -17.8721 10337.3 818.7 47.0948 10330.5 830.248 -133.506 10404.8 788.89 235.456 10375.7 850.527 -106.348 10405.5 799.504 200.783 10381.6 850.916 -59.2005 10405.4 814.998 144.256 10389.9 849.142 3.74408 10403.1 830.725 74.9608 10397.7 842.697 17.837 9905.85 673.674 205.056 9733.36 592.303 33.1918 9892.96 672.179 189.537 9750.17 604.825 59.2711 9870.97 667.53 163.251 9777.04 623.225 92.9439 9842.01 657.746 129.437 9809.29 642.311 129.677 10160.8 798.821 458.926 10047.6 694.022 156.864 10153.3 796.233 431.441 10059.9 709.312 202.812 10140.3 789.353 385.116 10079 732.032 261.881 10122.3 776.053 325.79 10101 756.05 23.6778 9924.43 687.016 222.581 9759.47 602.825 40.0215 9912.25 685.357 206.088 9775.73 615.665 67.7526 9891.43 680.405 178.167 9801.64 634.558 103.523 9863.89 670.184 142.268 9832.62 654.212 116.7 10135.8 790.585 433.095 10019.4 687.051 142.844 10128.2 788.021 406.715 10032 702.175 187.027 10114.7 781.226 362.233 10051.6 724.634 243.816 10096.2 768.101 305.24 10074.3 748.357 34.9518 9956.47 707.936 253.27 9802.76 619.442 52.9365 9945.38 706.035 235.157 9818.19 632.77 83.4102 9926.31 700.63 204.521 9842.69 652.425 122.666 9900.89 689.746 165.153 9871.77 672.949 96.5109 10095.9 776.048 392.056 9973.62 674.871 120.948 10087.7 773.552 367.455 9986.72 689.696 162.248 10073.5 766.937 325.946 10007.2 711.687 215.328 10054 754.148 272.723 10030.9 734.879 51.9439 9999.17 732.294 294.952 9857.6 639.002 72.008 9989.25 730.14 274.777 9872.17 652.883 105.962 9972.08 724.248 240.681 9895.14 673.399 149.648 9948.96 712.631 196.898 9922.18 694.91 73.4768 10047.8 756.019 343.375 9917.1 658.319 95.7899 10038.9 753.658 320.943 9930.86 672.72 133.517 10023.4 747.344 283.065 9952.45 694.048 182.018 10002.3 735.065 234.459 9977.65 716.485 -123.282 10048.3 615.645 10.5101 9912.02 674.047 -116.283 10037.3 625.5 -4.28934 9924.55 674.096 -102.503 10018.9 639.884 -27.8025 9944.8 672.06 -81.5801 9995.4 654.519 -55.3123 9969.59 665.778 -150.106 10220.6 743.468 116.656 10164.2 799.656 -132.1 10217.5 753.682 90.1816 10171.1 800.543 -99.9586 10211.9 768.476 47.4737 10181.5 799.592 -55.6436 10203.6 783.262 -3.99385 10193 794.171 -128.508 10057.1 629.947 15.8737 9930.24 687.464 -120.703 10047 639.791 0.097422 9942.02 687.657 -105.54 10030 654.131 -25.0123 9961.03 685.829 -82.7954 10008.2 668.666 -54.4892 9984.18 679.759 -150.084 10200.4 735.545 104.179 10139.4 791.415 -133.208 10196.8 745.716 78.7333 10146.5 792.3 -102.902 10190.3 760.441 37.7336 10157.4 791.363 -60.8446 10181 775.146 -11.5617 10169.6 785.984 -135.725 10074.2 652.091 26.356 9961.75 708.493 -126.553 10065.4 661.943 8.95943 9972.41 708.893 -109.055 10050.6 676.26 -18.7999 9989.52 707.36 -83.2534 10031.5 690.691 -51.5468 10010.2 701.577 -149.403 10169 721.384 84.809 10099.7 776.856 -134.296 10164.5 731.478 61.0472 10107.3 777.711 -106.881 10156.5 746.083 22.8338 10119 776.757 -68.4179 10145.5 760.663 -22.9396 10132.5 771.411 -142.468 10100.2 677.397 42.3457 10003.9 732.962 -131.492 10092.9 687.301 22.8969 10013.3 733.57 -110.945 10080.6 701.658 -8.22269 10028.3 732.321 -81.1929 10064.4 716.055 -45.131 10046.3 726.791 -147.111 10133.4 701.498 62.7958 10052 756.775 -134.076 10127.6 711.491 41.1284 10060.4 757.541 -110.085 10117.6 725.957 6.3664 10073.5 756.492 -75.931 10104.3 740.415 -35.0777 10089 751.11 374.953 9572.47 350.508 440.546 9515.36 -4.4263 384.946 9564.48 325.143 440.056 9517.31 30.6485 399.966 9552.6 281.1 436.89 9521.65 86.8013 415.927 9539.96 221.96 428.95 9529.2 154.134 754.934 9928.64 404.343 864.764 9885.83 -0.920149 771.113 9922.31 374.305 861.74 9886.65 37.8251 794.937 9912.87 322.585 854.318 9889.23 100.4 819.861 9902.86 253.967 840.492 9894.58 176.362 403.014 9604.08 355.978 472.077 9548.63 -4.31138 413.594 9596.37 330.162 471.612 9550.59 31.2081 429.478 9584.91 285.362 468.346 9554.89 88.1087 446.327 9572.69 225.26 460.035 9562.26 156.399 717.794 9898.13 400.702 823.547 9854.42 -1.74735 733.5 9891.8 371.026 820.991 9855.47 36.904 756.687 9882.35 319.866 814.203 9858.33 99.2552 780.978 9872.31 251.871 801.007 9863.91 174.82 451.122 9655.45 364.701 526.054 9602.52 -4.16655 462.647 9648.15 338.165 525.537 9604.46 32.0659 479.916 9637.29 292.156 521.999 9608.65 90.166 498.189 9625.69 230.511 513.019 9615.74 159.991 658.397 9848.24 394.254 757.524 9802.96 -2.75783 673.299 9841.86 365.185 755.637 9804.32 35.6117 695.384 9832.32 314.988 749.784 9807.59 97.4079 718.572 9822.15 248.114 737.58 9813.52 172.128 514.821 9718.87 375.081 597.372 9668.77 -3.96052 527.494 9711.99 347.68 596.617 9670.62 33.1031 546.426 9701.74 300.224 592.549 9674.6 92.6095 566.406 9690.77 236.738 582.629 9681.33 164.248 587.081 9785.89 385.408 678.076 9738.43 -3.53537 600.931 9779.33 357.127 676.845 9740.08 34.2909 621.545 9769.53 308.21 671.97 9743.75 95.1111 643.241 9759.06 242.894 660.924 9750.08 168.48 212.479 9725.07 585.841 369.865 9576.57 362.489 227.641 9708.49 571.82 358.919 9585.51 386.491 252.318 9682.71 546.521 339.501 9601.76 424.237 282.405 9653.12 510.934 312.973 9624.9 468.245 472.116 10041.5 686.175 746.583 9931.88 418.594 499.063 10029.3 669.193 728.381 9938.8 447.171 542.875 10010.4 638.657 695.48 9951.09 492.169 596.08 9988.8 595.875 649.66 9968.19 544.738 230.474 9751.44 596.203 397.624 9608.04 368.177 246.594 9735.4 581.844 386.024 9616.65 392.623 272.827 9710.46 555.953 365.43 9632.32 431.093 304.8 9681.87 519.574 337.271 9654.64 475.983 445.751 10013.2 679.287 709.702 9901.37 414.772 471.607 10000.6 662.483 692.094 9908.32 442.99 513.65 9981.25 632.271 660.341 9920.73 487.439 564.73 9959.15 589.953 616.225 9938.11 539.391 261.942 9795.11 612.575 445.244 9659.19 377.247 279.654 9779.85 597.694 432.578 9667.34 402.399 308.473 9756.16 570.892 410.055 9682.15 442.009 343.582 9729.04 533.283 379.205 9703.26 488.284 403.853 9967.09 667.256 650.74 9851.51 408.024 427.954 9954.06 650.773 634.121 9858.57 435.645 467.15 9933.92 621.138 604.259 9871.26 479.171 514.803 9910.97 579.637 562.922 9889.17 530.071 304.617 9850.38 631.858 508.345 9722.4 388.043 324.359 9835.94 616.386 494.365 9730.07 414.037 356.474 9813.59 588.546 469.437 9743.99 455.001 395.576 9788.05 549.527 435.198 9763.82 502.899 354.127 9910.25 650.915 579.985 9789.25 398.795 376.091 9896.58 634.886 564.628 9796.54 425.647 411.816 9875.43 606.061 537.144 9809.73 467.97 455.283 9851.32 565.69 499.254 9828.45 517.475 -306.273 8725.3 -504.622 -372.236 9218.67 -269.955 -315.767 8773.42 -485.034 -370.399 9182.97 -290.149 -329.875 8850.76 -452.332 -365.838 9121.13 -323.606 -344.818 8943.98 -410.709 -357.353 9038.4 -365.739 -543.768 8566.32 -876.566 -632.642 9139 -566.833 -555.875 8620.89 -851.016 -629.272 9097.02 -593.8 -573.948 8709.34 -808.236 -622.09 9024.27 -638.346 -593.333 8817.06 -753.564 -610.072 8927.19 -694.214 -322.657 8714.12 -531.485 -390.884 9209.98 -290.35 -332.374 8762.5 -511.372 -388.907 9174.04 -311.122 -346.848 8840.21 -477.79 -384.085 9111.83 -345.526 -362.239 8933.85 -435.038 -375.223 9028.69 -388.832 -519.995 8580.87 -839.22 -607.526 9141.98 -535.685 -531.931 8634.41 -814.084 -604.284 9100.72 -562.021 -549.771 8721.11 -772.041 -597.283 9029.37 -605.561 -568.926 8826.56 -718.385 -585.459 8934.31 -660.228 -351.487 8694.18 -577.69 -423.44 9195.72 -325.825 -361.591 8743.04 -556.688 -421.239 9159.21 -347.536 -376.687 8821.52 -521.622 -415.997 9096.13 -383.485 -392.818 8916.11 -476.979 -406.531 9011.98 -428.724 -481.918 8605.15 -780.01 -566.847 9149.3 -486.878 -493.527 8657.28 -755.631 -563.816 9109.2 -512.215 -510.905 8741.49 -714.901 -557.134 9040.01 -554.139 -529.586 8843.69 -663.003 -545.689 8947.98 -606.844 -390.772 8666.84 -639.243 -467.293 9178.5 -373.851 -401.379 8716.47 -617.107 -464.816 9141.04 -396.728 -417.263 8796.27 -580.151 -459.071 9076.42 -434.606 -434.304 8892.58 -533.111 -448.888 8990.39 -482.269 -436.357 8635.51 -709.701 -517.465 9161.93 -429.881 -447.5 8686.24 -686.371 -514.7 9123.2 -454.014 -464.195 8767.99 -647.42 -508.451 9056.43 -493.964 -482.142 8866.92 -597.832 -497.572 8967.64 -544.227 -127.953 8062.8 -721.341 -301.399 8701.55 -514.082 -147.51 8119.99 -705.511 -290.859 8651.7 -533.383 -177.748 8214.31 -678.461 -271.863 8566.54 -564.763 -212.234 8331.88 -642.938 -244.979 8455.17 -603.216 -337.767 7792.15 -1127.8 -537.569 8539.51 -888.873 -359.116 7861.26 -1112.21 -524.342 8483.04 -913.696 -392.515 7974.23 -1084.31 -501.07 8385.85 -953.112 -431.324 8113.37 -1045.53 -469.111 8257.39 -999.68 -142.861 8043.74 -751.751 -317.675 8690.24 -541.196 -162.487 8101.78 -735.848 -306.932 8640.05 -560.989 -192.843 8197.47 -708.593 -287.648 8554.14 -593.096 -227.501 8316.69 -672.661 -260.479 8441.56 -632.312 -317.82 7818.19 -1088.19 -513.889 8554.53 -851.336 -338.794 7886.21 -1072.56 -500.876 8499.01 -875.786 -371.576 7997.5 -1044.68 -478.019 8403.32 -914.656 -409.634 8134.69 -1006.11 -446.675 8276.71 -960.67 -169.084 8010.18 -803.611 -346.317 8670.05 -587.829 -188.812 8069.72 -787.649 -335.212 8619.25 -608.454 -219.359 8167.83 -760.138 -315.412 8532.07 -641.782 -254.318 8289.87 -723.602 -287.721 8417.42 -682.255 -285.231 7860.56 -1024.92 -475.985 8579.48 -791.769 -305.734 7926.77 -1009.2 -463.35 8525.3 -815.529 -337.721 8035.26 -981.349 -441.171 8431.83 -853.397 -374.77 8169.22 -943.117 -410.755 8308.05 -898.409 -204.622 7964.6 -871.878 -385.351 8642.34 -649.929 -224.495 8026.19 -855.932 -373.758 8590.68 -671.613 -255.33 8127.53 -828.224 -353.241 8501.74 -706.48 -290.753 8253.31 -791.04 -324.797 8384.35 -748.509 -245.335 7912.18 -948.98 -430.666 8610.48 -720.961 -265.451 7976.11 -933.129 -418.531 8557.67 -743.754 -296.752 8081.1 -905.32 -397.179 8466.57 -780.224 -332.868 8211.05 -867.555 -367.79 8346.03 -823.851 -147.242 8890.84 -239.904 -192.369 9377.13 -86.8013 -154.869 8936.88 -226.458 -192.104 9340.95 -99.2596 -165.878 9011.53 -204.272 -190.273 9278.61 -120.213 -176.942 9102.56 -176.513 -185.418 9195.91 -147.137 -298.588 8730.51 -491.853 -363.458 9222.91 -260.321 -307.978 8778.51 -472.516 -361.689 9187.31 -280.231 -321.912 8855.69 -440.235 -357.256 9125.6 -313.224 -336.64 8948.75 -399.156 -348.956 9043.02 -354.784 -157.137 8875.36 -257.657 -203.648 9360.96 -97.6205 -164.882 8921.46 -243.694 -203.258 9324.98 -110.739 -176.084 8996.18 -220.619 -201.226 9262.91 -132.76 -187.388 9087.21 -191.685 -196.123 9180.44 -160.982 -283.069 8741.65 -466.205 -345.778 9232.26 -241.15 -292.255 8789.41 -447.378 -344.147 9196.81 -260.465 -305.85 8866.27 -415.959 -339.973 9135.33 -292.491 -320.155 8959.01 -375.997 -332.04 9053 -332.862 -174.892 8850.21 -288.432 -223.756 9335.15 -117.027 -182.838 8896.48 -273.627 -223.159 9299.47 -131.234 -194.37 8971.38 -249.102 -220.789 9237.78 -155.013 -206.088 9062.5 -218.245 -215.268 9155.61 -185.366 -258.27 8761.44 -425.618 -317.671 9249.63 -211.36 -267.149 8808.83 -407.622 -316.262 9214.34 -229.667 -280.233 8885.17 -377.618 -312.493 9153.09 -260.059 -293.899 8977.43 -339.506 -305.127 9071.04 -298.433 -199.601 8819.6 -329.82 -251.593 9304.56 -144.268 -207.817 8866.15 -313.97 -250.736 9269.15 -159.836 -219.797 8941.41 -287.647 -247.932 9207.8 -185.806 -232.078 9032.76 -254.4 -241.857 9125.87 -218.814 -228.775 8788.47 -377.613 -284.41 9274.56 -177.113 -237.314 8835.43 -360.654 -283.272 9239.29 -194.114 -249.828 8911.2 -332.424 -279.983 9178.11 -222.396 -262.782 9002.95 -296.649 -273.269 9096.23 -258.205 10.6877 8283.33 -403.441 -143.268 8868.23 -246.442 -7.00839 8335.22 -390.365 -134.516 8821.16 -259.929 -34.3707 8420.64 -368.503 -118.305 8741.77 -282.304 -65.4823 8527.13 -340.639 -94.7371 8639.35 -310.515 -120.971 8071.75 -706.814 -293.764 8706.82 -501.192 -140.49 8128.54 -691.03 -283.319 8657.13 -520.259 -170.666 8222.22 -664.095 -264.455 8572.33 -551.29 -205.068 8339.01 -628.783 -237.704 8461.55 -589.373 2.57173 8266.29 -426.247 -153.106 8852.71 -264.44 -15.3084 8318.31 -412.85 -144.233 8805.56 -278.422 -42.956 8403.96 -390.418 -127.815 8725.98 -301.583 -74.3965 8510.76 -361.77 -103.972 8623.3 -330.725 -106.937 8090.17 -677.453 -278.342 8718.09 -475.3 -126.363 8146.22 -661.787 -268.083 8668.72 -493.888 -156.39 8238.65 -635.116 -249.483 8584.63 -524.203 -190.601 8353.94 -600.268 -223.001 8475.01 -561.518 -12.2449 8237.45 -465.118 -170.762 8827.48 -295.615 -30.4297 8289.79 -451.219 -161.685 8780.11 -310.401 -58.5471 8375.99 -427.89 -144.924 8700.11 -334.836 -90.5265 8483.51 -397.995 -120.627 8596.8 -365.477 -84.7165 8120.79 -630.441 -253.69 8738.09 -434.316 -103.948 8175.75 -615.025 -243.714 8689.23 -452.122 -133.672 8266.38 -588.875 -225.527 8606.23 -481.253 -167.512 8379.44 -554.874 -199.492 8498.33 -517.271 -33.293 8200.15 -516.23 -195.34 8796.7 -337.499 -51.8519 8253.09 -501.754 -185.995 8748.95 -353.277 -80.5434 8340.32 -477.383 -168.791 8668.21 -379.274 -113.18 8449.14 -446.02 -143.926 8563.78 -411.737 -58.6435 8159.32 -573.843 -224.36 8765.36 -385.818 -77.5742 8213.16 -558.834 -214.704 8717.09 -402.647 -106.835 8301.93 -533.472 -197.007 8635.29 -430.277 -140.129 8412.67 -500.672 -171.535 8529.26 -464.613 -169.97 9790.42 40.819 -106.319 10129.7 94.1875 -166.284 9820.4 47.9967 -113.567 10101.5 92.4176 -159.498 9869.5 58.8687 -124.796 10054.6 88.2915 -149.698 9930.55 70.7137 -137.602 9995.1 81.0119 -346.77 9615.24 -33.4503 -278.88 9884.31 113.378 -342.835 9641.27 -18.2995 -286.604 9864.12 103.588 -335.592 9682.99 5.75333 -298.573 9829.7 86.2214 -325.133 9733.24 34.1988 -312.229 9784.38 62.3008 -181.76 9770.52 38.2079 -117.312 10102.3 98.7086 -178.038 9800.06 46.0074 -124.65 10075 96.3429 -171.175 9848.37 57.9032 -136.022 10029.5 91.2257 -161.252 9908.28 71.0286 -148.997 9971.42 82.6876 -328.749 9623.89 -22.8438 -261.06 9896.7 115.385 -324.845 9650.12 -8.42227 -268.769 9876.12 106.341 -317.641 9692.24 14.4247 -280.715 9841.05 90.2013 -307.219 9743.1 41.3494 -294.346 9794.97 67.8158 -202.746 9739.13 32.5531 -137.254 10058.9 105.281 -198.978 9767.98 41.4093 -144.713 10033 101.883 -192.018 9815.02 55.0478 -156.276 9989.58 95.054 -181.936 9873.1 70.3595 -169.473 9933.97 84.3504 -299.967 9641.34 -7.25855 -232.563 9921.58 116.901 -296.099 9667.98 5.97198 -240.246 9900.18 109.078 -288.946 9710.89 26.8479 -252.156 9863.82 94.9469 -278.574 9762.91 51.2849 -265.745 9816.23 75.0743 -231.714 9702.75 22.8876 -165.312 10008.2 111.71 -227.908 9730.79 33.1212 -172.878 9983.91 106.938 -220.864 9776.32 49.0362 -184.611 9943.08 97.8374 -210.645 9832.22 67.2129 -198.002 9890.37 84.2719 -265.709 9668.36 9.10034 -198.693 9959.85 115.912 -261.872 9695.63 20.8622 -206.332 9937.18 109.591 -254.769 9739.71 39.3066 -218.179 9898.83 97.934 -244.458 9793.47 60.6737 -231.698 9848.96 81.16 -192.285 9394.3 -80.814 -171.65 9775.76 37.171 -191.914 9429.24 -68.7215 -174.891 9745.35 29.3228 -190.768 9486.01 -49.457 -179.616 9694.23 15.3532 -188.34 9555.72 -26.5869 -184.466 9628.33 -3.93354 -364.079 9239.76 -250.67 -348.562 9602.37 -40.9738 -365.009 9274.04 -230.983 -351.99 9575.26 -56.7962 -365.57 9329.61 -199.022 -356.861 9528.64 -83.9359 -364.587 9397.38 -159.954 -361.519 9466.93 -119.741 -203.626 9378.02 -91.3088 -183.454 9756.06 34.2569 -203.37 9412.73 -78.5498 -186.718 9726.04 25.7821 -202.378 9469.11 -58.1901 -191.461 9675.52 10.7667 -200.086 9538.3 -33.9534 -196.292 9610.28 -9.853 -346.338 9249.03 -231.791 -330.525 9610.92 -30.013 -347.157 9283.14 -212.715 -333.922 9583.67 -45.1098 -347.581 9338.43 -181.798 -338.755 9536.94 -71.0635 -346.498 9405.91 -144.097 -343.394 9475.25 -105.405 -223.834 9352.05 -110.179 -204.458 9725 28.0879 -223.765 9386.44 -96.3185 -207.75 9695.59 18.5508 -223.026 9442.25 -74.141 -212.509 9645.98 1.76699 -220.957 9510.69 -47.6252 -217.298 9581.75 -21.0985 -318.131 9266.32 -202.496 -301.724 9628.2 -13.8492 -318.768 9300.26 -184.455 -305.086 9600.64 -27.76 -318.962 9355.29 -155.293 -309.877 9553.58 -51.7696 -317.699 9422.51 -119.874 -314.514 9491.75 -83.7022 -251.795 9321.31 -136.752 -233.442 9688.98 17.7527 -251.959 9355.39 -121.509 -236.756 9660.28 6.83465 -251.531 9410.68 -97.0404 -241.521 9611.7 -12.2401 -249.738 9478.39 -67.6307 -246.249 9548.53 -37.9993 -284.745 9291.24 -168.891 -267.451 9654.95 3.22293 -285.155 9325.15 -152.186 -270.785 9626.89 -9.22297 -285.053 9380.15 -125.275 -275.555 9579.21 -30.8222 -283.543 9447.41 -92.7524 -280.223 9516.9 -59.7498 -412.143 10837.5 -2283.14 446.9 12183.1 -2182.82 -343.886 10950.6 -2269.9 371.188 12068 -2186.54 -227.913 11139.1 -2249.82 245.769 11877.1 -2194.72 -77.2157 11378.4 -2227.88 88.5861 11636.1 -2208.61 4088.89 7469.41 -5278.9 4464.61 10879.7 -6506.17 4145.67 7742.78 -5398.05 4456.72 10574.5 -6418.66 4229.42 8203.76 -5590.46 4434.07 10073.8 -6265.73 4316.81 8798.75 -5823.37 4388.11 9451.96 -6059.55 -325.916 10791.3 -2361.92 545.707 12182.1 -2288.07 -256.033 10908.2 -2350.83 469.498 12063.1 -2289.44 -137.581 11102.9 -2334.37 343.017 11865.7 -2293.77 15.8476 11350.1 -2317.06 184.067 11616.6 -2302.87 3431.31 7803.77 -4898.44 3812.92 10860.9 -5931.88 3483.56 8047.85 -4997.65 3800.07 10586.4 -5857.24 3562.07 8459.88 -5158.31 3770.8 10136.4 -5727.2 3646.7 8992.46 -5353.61 3719.54 9578.08 -5552.62 -23.1199 10543.7 -2602.19 804.379 12045.8 -2612.03 44.8071 10668.8 -2598.95 733.627 11916.1 -2607.21 159.252 10877.6 -2595.27 615.546 11701.5 -2600.8 306.276 11143.6 -2593.64 465.992 11431.4 -2595.59 2476.33 8410.72 -4318.43 2907 10975.6 -5064.45 2525.96 8615.14 -4388.41 2883.94 10745.1 -5009.16 2603.17 8960.42 -4502.43 2839.9 10367.2 -4913.42 2691.39 9407.02 -4642.19 2774.15 9898.44 -4786.01 586.864 9989.51 -3052.77 1289.53 11713.8 -3234.37 647.738 10130.4 -3066.34 1232.66 11562.3 -3217.6 748.924 10366.8 -3089.83 1136.41 11312.6 -3190.09 876.5 10670 -3121.03 1012.14 11000.4 -3156.14 1464.51 9206.01 -3662.07 2011.26 11293.1 -4102.16 1517.43 9373.56 -3701.33 1972.45 11106.8 -4067.68 1603.05 9656.04 -3766.12 1904.39 10800.9 -4008.81 1706.93 10020.5 -3846.98 1812.39 10420.4 -3931.93 -1317.82 11087.3 -877.513 -838.451 11751.2 -504.383 -1286.41 11145.2 -845.344 -887.433 11696.4 -535.69 -1230.04 11240.6 -792.153 -965.785 11604.7 -587.803 -1151.61 11360.4 -725.286 -1059.12 11487.5 -653.939 -1122.52 11118.2 -1460.53 -504.002 12017.8 -1161.72 -1078.94 11194.3 -1433.26 -564.128 11941.3 -1185.35 -1002.41 11320.7 -1388.82 -661.42 11814.1 -1225.27 -898.647 11481 -1334.06 -779.302 11653.3 -1276.97 -1307.54 11100 -922.196 -810.353 11781.6 -552.393 -1274.56 11159.3 -890.151 -860.725 11725.2 -583.265 -1215.57 11257.2 -837.236 -941.461 11630.9 -634.716 -1133.86 11379.9 -770.833 -1037.92 11510.5 -700.126 -1157.72 11131.7 -1398.41 -541.75 12007.7 -1088.89 -1114.43 11206 -1370.27 -601.724 11933.3 -1113.46 -1038.34 11329.4 -1324.36 -698.738 11809.8 -1154.93 -935.089 11485.6 -1267.72 -816.223 11653.4 -1208.57 -1291.96 11118.4 -995.858 -766.674 11829.9 -632.467 -1256.52 11180 -964.098 -819.278 11770.8 -662.54 -1193.45 11281.9 -911.766 -903.82 11672.1 -712.768 -1106.61 11409.9 -846.292 -1005.24 11546.2 -776.816 -1203.04 11144 -1303.98 -596.688 11982.9 -979.287 -1160.64 11215.5 -1274.67 -655.914 11912 -1005.25 -1085.99 11334.1 -1226.77 -751.651 11794.1 -1049 -984.498 11483.9 -1167.5 -867.473 11644.6 -1105.45 -1271.52 11136 -1090.11 -714.08 11886.7 -736.606 -1233.31 11200.7 -1058.88 -769.29 11824.1 -765.53 -1165.63 11307.7 -1007.55 -858.25 11719.4 -813.977 -1072.97 11442.5 -943.577 -965.37 11586.3 -875.997 -1242.8 11146 -1196.26 -656.43 11941 -856.027 -1202.12 11214.1 -1165.85 -714.018 11874.2 -883.53 -1130.33 11327 -1116.03 -806.992 11762.9 -929.735 -1032.44 11469.3 -1054.18 -919.266 11621.6 -989.138 -76.0861 12423.5 -150.231 789.837 13007.2 71.2292 -7.64556 12474 -126.33 713.101 12959 57.0775 108.845 12557.6 -88.9019 586.245 12878.3 31.8232 260.484 12662.8 -45.4549 427.579 12774.9 -3.3783 372.64 13022.9 -924.773 1263.89 14016.6 -808.838 447.025 13104.4 -910.854 1188.92 13929.5 -815.592 571.901 13240.9 -889.779 1063.36 13785.8 -827.692 731.403 13415.8 -866.433 903.433 13606.1 -844.94 -34.2224 12477.2 -205.966 835.224 13088.6 7.91023 34.9111 12529.8 -182.766 758.57 13037.9 -5.69382 152.386 12617 -146.494 631.7 12952.9 -29.9834 304.979 12727 -104.479 472.74 12844.4 -63.8815 334.584 12979.2 -839.914 1230.37 13932 -714.883 409.12 13057.5 -825.088 1154.74 13848.8 -722.222 534.322 13188.7 -802.542 1028.21 13711.4 -735.394 694.398 13356.7 -777.421 867.268 13539.3 -754.151 32.2465 12566.3 -299.902 908.576 13227.1 -99.5769 102.594 12622.6 -277.956 831.954 13171.7 -112.202 221.823 12716.2 -243.749 704.89 13079.1 -134.766 376.169 12834.6 -204.291 545.238 12961.4 -166.336 272.675 12901.1 -711.224 1170.65 13788.2 -570.56 346.963 12974.4 -694.877 1094.35 13711.2 -578.95 471.908 13097.2 -669.856 966.922 13583.9 -594.017 631.959 13254 -641.72 805.212 13424.1 -615.398 112.326 12678.1 -423.274 997.982 13407 -241.481 184.214 12739.6 -403.048 921.315 13345.1 -252.77 305.696 12842 -371.671 793.872 13242.1 -272.981 462.342 12971.9 -335.714 633.195 13111.7 -301.371 195.568 12795.8 -565.266 1089.76 13603.9 -404.544 268.918 12863.2 -547.013 1013.13 13534.5 -414.331 392.539 12975.8 -518.873 885.422 13419.3 -431.887 551.354 13119.2 -486.909 723.855 13274.2 -456.675 -1116.35 10576.4 -190.937 -911.722 10977.1 127.105 -1106.17 10612.6 -165.377 -936.091 10945.2 98.665 -1086.22 10671.7 -122.321 -973.76 10891.4 52.0148 -1055.65 10745 -66.8147 -1016.33 10821.7 -5.92634 -1271.14 10828.9 -446.481 -962.659 11325.6 -83.6285 -1253.92 10873.2 -416.611 -997.18 11285.7 -115.388 -1221.37 10946 -366.611 -1051.34 11218.4 -167.743 -1173.43 11036.4 -302.701 -1113.92 11131.6 -233.249 -1130.22 10596.8 -208.204 -917.852 11004.5 113.944 -1119.55 10633.6 -182.283 -942.974 10972 85.1739 -1098.68 10693.8 -138.631 -981.881 10917.2 37.9654 -1066.81 10768.3 -82.3764 -1025.97 10846.3 -20.6975 -1257.45 10806.7 -420.707 -959.519 11293.7 -61.1355 -1241 10850.2 -391.186 -993.03 11254.6 -92.6766 -1209.79 10921.7 -341.735 -1045.55 11188.7 -144.649 -1163.63 11010.4 -278.461 -1106.15 11103.7 -209.63 -1152.51 10631.3 -238.839 -927.07 11050.8 90.0832 -1141 10669.1 -212.309 -953.475 11017.4 60.7796 -1118.59 10730.9 -167.656 -994.478 10960.9 12.6645 -1084.54 10807.6 -110.159 -1041.12 10887.9 -47.1775 -1235.47 10770.1 -379.43 -954.072 11241.6 -25.6176 -1220.2 10812.3 -350.506 -985.982 11203.9 -56.7638 -1191.05 10881.6 -301.996 -1035.92 11140.2 -108.047 -1147.67 10967.6 -239.83 -1093.38 11057.9 -172.091 -1179.76 10675.7 -280.939 -937.204 11111 56.3993 -1167.13 10714.8 -253.628 -965.298 11076.3 26.451 -1142.68 10779 -207.704 -1009.05 11017.6 -22.7651 -1105.79 10858.5 -148.647 -1059.03 10941.8 -84.052 -1208.48 10724.2 -330.108 -946.515 11177.6 15.9656 -1194.55 10764.9 -301.958 -976.523 11141.4 -14.6292 -1167.78 10831.6 -254.68 -1023.38 11080.2 -64.9571 -1127.65 10914.4 -193.984 -1077.11 11001.2 -127.719 -779.885 10195 104.262 -713.826 10464.4 336.174 -779.154 10219.6 122.345 -724.303 10443.2 314.873 -775.92 10259.6 153.044 -739.697 10407.2 280.157 -768.25 10309.1 193.043 -755.598 10360.6 237.437 -938.281 10350.9 -11.677 -815.757 10675.9 259.063 -934.261 10380.3 9.88319 -832.281 10650.1 234.661 -924.849 10428.4 46.29 -857.302 10606.6 194.707 -908.181 10487.9 93.3788 -884.539 10550.1 145.216 -793.123 10206.3 95.9976 -722.288 10480.4 331.017 -792.135 10231.3 114.339 -733.221 10458.7 309.455 -788.376 10272 145.472 -749.391 10422.2 274.3 -779.903 10322.3 186.028 -766.267 10374.7 231.022 -924.056 10335.8 -0.357887 -806.591 10655.8 266.952 -920.411 10364.7 20.8945 -822.572 10630.4 242.83 -911.622 10412.1 56.7992 -846.76 10587.5 203.344 -895.763 10470.7 103.267 -873.047 10531.9 154.452 -814.995 10225.9 81.5803 -736.309 10507.6 321.86 -813.597 10251.5 100.375 -748.034 10485.4 299.868 -809.002 10293.3 132.263 -765.518 10447.7 263.988 -799.24 10345 173.771 -784.007 10398.9 219.779 -900.978 10311.4 17.8777 -791.707 10623.3 279.522 -897.886 10339.6 38.6142 -806.786 10598.6 255.853 -890.05 10385.8 73.6789 -829.587 10556.8 217.128 -875.481 10442.9 119.112 -854.29 10502.6 169.217 -842.626 10252.1 62.1577 -754.078 10543.5 309.246 -840.717 10278.5 81.5602 -766.853 10520.4 286.714 -835.096 10321.7 114.449 -786.04 10481.5 249.919 -823.762 10375.2 157.203 -806.561 10431 204.521 -872.546 10281.9 39.8895 -773.364 10583.8 294.45 -870.059 10309.3 59.9749 -787.316 10559.9 271.335 -863.326 10354 93.9797 -808.364 10519.5 233.55 -850.329 10409.3 138.11 -831.056 10467.1 186.86 -469.622 10691.1 606.135 -66.8682 10807.3 811.006 -442.235 10704.9 626.461 -106.995 10801.7 796.68 -393.597 10726.2 659.062 -171.537 10790.4 771.56 -326.815 10750.5 698.184 -249.09 10773 737.5 -484.49 10953.9 566.407 21.3713 11112.1 797.602 -449.225 10971.4 589.474 -27.942 11103.1 781.504 -386.973 10998.8 626.404 -107.738 11086.2 753.266 -302.188 11030.8 670.614 -204.409 11061.4 714.938 -471.967 10710.9 603.878 -60.5921 10830.3 810.895 -443.944 10724.9 624.404 -101.476 10824.4 796.401 -394.183 10746.8 657.329 -167.292 10812.7 770.998 -325.887 10771.6 696.845 -246.461 10794.7 736.57 -484.097 10928.7 570.827 12.6168 11082.8 799.771 -449.574 10945.8 593.644 -35.8876 11074.1 783.809 -388.57 10972.7 630.184 -114.352 11057.8 755.818 -305.389 11003.9 673.945 -209.362 11033.7 717.842 -475.338 10744.6 599.645 -49.6822 10869.4 810.287 -446.26 10759.2 620.521 -91.8307 10863.1 795.523 -394.641 10781.8 654.008 -159.767 10850.7 769.657 -323.847 10807.7 694.203 -241.612 10831.8 734.619 -483.172 10888.2 577.766 -1.38531 11035.7 802.946 -449.835 10904.7 600.167 -48.5604 11027.6 787.215 -390.842 10930.7 636.059 -124.835 11012.2 759.642 -310.269 10960.7 679.074 -217.114 10989.2 722.255 -478.739 10789.1 593.449 -35.0096 10920.8 808.767 -448.315 10804.2 614.798 -78.7723 10914 793.675 -394.341 10827.9 649.036 -149.399 10900.7 767.238 -320.397 10855.1 690.124 -234.625 10880.6 731.429 -481.434 10839.2 585.795 -18.151 10978.9 806.204 -449.53 10855 607.679 -63.668 10971.4 790.774 -392.993 10879.8 642.761 -137.204 10957 763.741 -315.644 10908.4 684.837 -226.067 10935.5 727.112 1002.39 11690.5 847.961 1770.35 11744 747.146 1070.06 11696.5 847.695 1709.44 11741.6 763.958 1182.15 11706.1 843.805 1605.79 11736.5 788.486 1322.67 11717.4 832.793 1470.97 11728.2 813.464 1334.08 12409 676.142 2157.46 12609.7 592.037 1408.4 12427.4 676.227 2093.43 12594.7 606.263 1530.58 12457.6 673.323 1984.07 12568.6 627.014 1682.33 12495.1 664.306 1841 12533.9 648.105 1027.16 11741 839.899 1801.23 11803.3 739.821 1095.48 11747.7 839.659 1739.9 11800.1 756.527 1208.57 11758.5 835.825 1635.52 11793.7 780.9 1350.26 11771.4 824.908 1499.72 11783.8 805.716 1301.42 12334.8 697.914 2121.18 12518.3 611.799 1375.22 12351.7 697.978 2057.28 12504.7 626.356 1496.64 12379.6 694.982 1948.21 12481.1 647.587 1647.6 12413.9 685.742 1805.6 12449.5 669.164 1069.32 11828.2 824.04 1852.85 11906.3 725.498 1138.66 11836.2 823.849 1790.89 11901.7 741.982 1253.35 11849.2 820.126 1685.4 11893.1 766.026 1396.87 11864.9 809.405 1548.11 11880.3 790.499 1249.49 12218.1 730.835 2062.93 12375.4 641.586 1322.42 12232.8 730.855 1999.29 12364 656.649 1442.57 12257 727.701 1890.74 12344.1 678.615 1592.16 12286.7 718.104 1748.99 12317.2 700.939 1124.76 11945.4 799.411 1919.12 12045.8 703.34 1195.33 11955.3 799.289 1856.48 12039.3 719.458 1311.9 11971.5 795.733 1749.81 12027.5 742.964 1457.57 11991.1 785.32 1610.84 12010.8 766.877 1187.47 12081.1 766.986 1992.21 12208.9 674.178 1259.29 12093.3 766.94 1929 12200.1 689.799 1377.76 12113.3 763.586 1821.26 12184.4 712.578 1525.54 12137.8 753.571 1680.74 12162.7 735.738 527.479 10823.1 899.707 1116.84 10763.8 791.2 577.912 10819.6 898.524 1068.99 10771.1 808.553 662.206 10813.5 893.279 987.908 10782 833.968 769.094 10804.8 880.794 883.194 10793.9 860.101 727.948 11168 900.274 1405.55 11144 793.533 786.634 11167.5 899.52 1350.95 11148.3 810.919 884.319 11166.3 894.835 1258.37 11154.2 836.349 1007.58 11163.9 882.823 1138.56 11159.8 862.4 542.716 10848.7 900.931 1139.35 10791.5 792.328 593.799 10845.4 899.777 1090.88 10798.6 809.714 679.15 10839.6 894.56 1008.8 10809.3 835.179 787.341 10831.3 882.08 902.814 10820.8 861.36 708.954 11134.3 901.403 1378.61 11106.3 794.37 766.871 11133.5 900.609 1324.57 11110.9 811.77 863.307 11131.8 895.866 1232.97 11117.4 837.226 985.048 11128.6 883.793 1114.49 11123.7 863.316 568.693 10892.5 902.477 1177.41 10839.2 793.854 620.871 10889.6 901.377 1127.96 10846 811.278 707.998 10884.3 896.219 1044.22 10856.1 836.797 818.375 10876.7 883.766 936.139 10867 863.029 678.295 11080.5 902.79 1335.04 11046.2 795.289 734.969 11079.2 901.93 1281.92 11051.3 812.71 829.39 11076.6 897.092 1191.93 11058.7 838.206 948.679 11072.3 884.919 1075.63 11066.2 864.358 602.79 10950.4 903.571 1226.88 10902.4 795.136 656.383 10947.9 902.544 1176.21 10908.8 812.581 745.806 10943.4 897.477 1090.42 10918.1 838.128 858.998 10936.7 885.089 979.687 10928 864.373 641.032 11015.9 903.681 1281.86 10974.6 795.658 696.192 11014 902.739 1229.9 10980.3 813.099 788.156 11010.4 897.784 1141.94 10988.7 838.633 904.452 11004.9 885.497 1028.34 10997.4 864.847 1618.57 10684.9 454.755 1806.97 10662.6 6.78318 1646.8 10680.1 420.039 1804.25 10661.9 48.1504 1689.04 10673.4 361.006 1793.85 10661.6 115.481 1733.82 10667.2 283.925 1770.63 10663.2 198.177 1973.79 11099.9 454.556 2185.62 11098.1 9.27089 2005.13 11097.3 419.517 2181.15 11095.9 49.8631 2051.74 11093.9 360.175 2168.08 11093.1 116.13 2100.92 11091.6 283.11 2141.59 11091.3 197.88 1647.33 10714.9 455.425 1838.01 10693.8 6.67817 1675.76 10710.2 420.66 1834.84 10693 48.126 1718.22 10703.6 361.538 1823.91 10692.5 115.585 1763.2 10697.6 284.331 1800.27 10693.8 198.434 1941.76 11058.3 455.265 2151.84 11054.2 9.05674 1972.77 11055.3 420.209 2147.21 11052 49.7849 2018.85 11051.6 360.811 2134.05 11049.4 116.254 2067.47 11048.7 283.629 2107.71 11048 198.22 1695.51 10766.5 456.255 1889.83 10747.7 6.74632 1724.29 10762 421.41 1886.05 10746.6 48.2403 1767.18 10755.7 362.16 1874.35 10745.7 115.784 1812.57 10750.1 284.8 1850.08 10746.6 198.755 1889.52 10992.2 456.154 2096.61 10984.6 8.57379 1920 10988.9 421.097 2091.85 10982.6 49.5301 1965.27 10984.5 361.649 2078.68 10980.3 116.334 2013.04 10980.9 284.316 2052.63 10979.4 198.641 1757.31 10835.2 456.803 1956.02 10819.6 7.16507 1786.58 10831 421.865 1951.67 10818.1 48.5855 1830.13 10825.2 362.491 1939.22 10816.8 116.042 1876.14 10820.1 285.037 1914.26 10817.2 198.965 1824.98 10913.8 456.769 2028.13 10902.1 7.86386 1854.84 10910 421.752 2023.44 10900.3 49.0818 1899.22 10904.9 362.306 2010.48 10898.5 116.26 1946.05 10900.4 284.863 1984.9 10898.2 198.932 -4380.88 -307.568 -238.096 -3738.6 82.9772 -648.327 -4327.45 -285.378 -264.768 -3798.2 36.8238 -606.81 -4239.92 -244.816 -313.035 -3893.76 -33.7645 -540.071 -4129.71 -186.146 -380.529 -4009.59 -112.836 -460.105 -8497.83 -295.718 707.603 -7603.4 -478.661 1208.71 -8442.01 -308.589 758.608 -7699.86 -461.346 1175.77 -8341.06 -331.36 840.686 -7851.35 -432.944 1117.02 -8198.73 -362.394 938.636 -8027.76 -398.046 1035.35 -4578.9 -340.329 -197.165 -3905.73 25.5919 -578.652 -4522.92 -319.641 -221.077 -3968.29 -17.9903 -539.179 -4431.22 -281.833 -264.849 -4068.51 -84.4381 -476.015 -4315.78 -227.112 -326.865 -4189.93 -158.591 -400.884 -7865.6 -238.287 585.689 -6962.12 -338.951 965.88 -7805.6 -245.433 626.404 -7057.85 -330.49 943.173 -7699.92 -258.389 691.321 -7208.1 -315.773 901.366 -7554.75 -276.283 767.585 -7383.42 -296.615 841.149 -4928.26 -346.481 -111.979 -4201.5 -28.3857 -420.793 -4868.27 -328.367 -129.479 -4269.64 -66.5467 -386.941 -4769.87 -295.46 -162.555 -4378.51 -124.462 -333.432 -4645.72 -248.061 -211.124 -4509.96 -188.783 -271.013 -6992.34 -202.295 403.549 -6097.09 -185.23 602.614 -6928.08 -201.548 428.892 -6189.14 -189.457 595.027 -6818.2 -200.736 468.067 -6333.84 -194.464 578.453 -6672.03 -199.868 511.693 -6503.69 -198.082 550.405 -5440.1 -298.477 24.3865 -4646.32 -55.9795 -154.368 -5376.15 -284.304 17.9131 -4722.4 -85.3443 -130.963 -5270.65 -258.965 3.43888 -4843.34 -129.55 -95.2472 -5136.43 -222.983 -21.3988 -4988.21 -178.246 -55.9578 -6136.39 -229.773 204.225 -5280.06 -90.935 204.185 -6070.58 -221.437 212.767 -5364.94 -108.527 213.01 -5960.56 -206.99 223.663 -5499.02 -134.381 224.041 -5818.1 -186.952 231.263 -5657.94 -162.052 231.445 -1084.88 1299.92 -912.072 -1096.41 2150.96 -1695.07 -1082.49 1353.47 -982.66 -1092.16 2059.61 -1633.24 -1080 1449.82 -1098.44 -1086.46 1915.74 -1528.43 -1079.35 1585.26 -1242.02 -1081.62 1747.91 -1392.3 -2430.5 343.659 -676.955 -2140.78 1058.42 -1360.21 -2405.8 386.853 -732.686 -2166.08 979.224 -1301.27 -2365.22 465.158 -826.755 -2207.62 855.413 -1203.27 -2314.25 576.651 -947.824 -2259.37 712.744 -1079.58 -1182.41 1199.17 -897.336 -1173.92 2038.35 -1675.59 -1178.57 1251.79 -967.021 -1171.66 1948 -1613.71 -1173.59 1346.51 -1081.53 -1169.14 1805.8 -1508.98 -1169.61 1479.81 -1223.87 -1168.08 1640.13 -1373.28 -2303.8 400.892 -703.545 -2043.33 1129.54 -1400.83 -2281.37 445.028 -761.001 -2065.82 1048.93 -1341.15 -2244.59 525.002 -857.678 -2102.86 922.879 -1241.76 -2198.56 638.784 -981.627 -2149.2 777.54 -1116.01 -1352.37 1039.21 -871.16 -1307.75 1859.68 -1640.54 -1345.92 1090.33 -939.228 -1309.08 1770.87 -1578.64 -1336.44 1182.48 -1051.44 -1312.28 1631.3 -1474.16 -1326.46 1312.39 -1191.55 -1318.07 1469.03 -1339.32 -2096.17 508.755 -744.33 -1883.64 1258.36 -1461.71 -2077.39 554.38 -804.408 -1901.5 1175.72 -1401.1 -2046.78 636.973 -905.005 -1931.11 1046.39 -1299.9 -2008.81 754.296 -1033.19 -1968.52 897.094 -1171.33 -1580.85 850.008 -834.655 -1485.87 1647.85 -1590.65 -1570.75 899.331 -900.449 -1492.19 1560.94 -1528.87 -1554.99 988.355 -1009.4 -1503.37 1424.55 -1424.98 -1536.65 1114.18 -1146.27 -1518.68 1266.38 -1291.57 -1841.41 663.993 -790.617 -1687.42 1437.57 -1528.78 -1826.99 711.418 -853.64 -1699.56 1352.75 -1467.42 -1803.82 797.15 -958.573 -1720.03 1219.85 -1364.61 -1775.65 918.647 -1091.33 -1746.46 1066.1 -1233.33 -1208.91 3547.93 -2339.53 -1382.64 5105.98 -2647.49 -1222.53 3674.51 -2378.2 -1365.43 4970.04 -2634.03 -1245.09 3887.97 -2437.28 -1338.35 4745.01 -2606.34 -1274.02 4162.75 -2502.87 -1306.34 4462.46 -2561.95 -1867.97 2331.54 -2062.81 -1717.35 3898.07 -2553.05 -1851.09 2454.78 -2114.07 -1725.07 3755.35 -2520.78 -1824.31 2663.71 -2195.07 -1740.31 3522.43 -2463.37 -1793.14 2935.1 -2290.34 -1763.61 3235.01 -2383.99 -1261.35 3426.14 -2327.71 -1415.35 4986.93 -2651.53 -1273.03 3552.59 -2367.56 -1399.56 4850.31 -2636.55 -1292.49 3765.96 -2428.67 -1374.94 4624.38 -2606.41 -1317.68 4040.86 -2496.94 -1346.22 4341.05 -2559.05 -1808.16 2420.12 -2103.79 -1691.02 3993.85 -2580.64 -1794.31 2544.31 -2154.29 -1696.03 3851.14 -2549.95 -1772.48 2754.79 -2233.9 -1706.73 3617.87 -2494.96 -1747.39 3027.96 -2327.15 -1724.23 3329.46 -2418.29 -1349.45 3233.4 -2305.05 -1466.87 4799.66 -2655.56 -1357.58 3359.73 -2346.87 -1453.75 4661.84 -2638 -1371.31 3573.09 -2411.38 -1433.74 4434.27 -2603.71 -1389.61 3848.36 -2484.14 -1411.16 4149.48 -2551.34 -1710.13 2572.38 -2161.84 -1647.01 4151.91 -2614.77 -1701.22 2697.64 -2210.86 -1647.7 4009.69 -2586.77 -1687.42 2909.79 -2287.82 -1651.17 3776.65 -2535.92 -1672.21 3184.78 -2377.36 -1659.34 3487.68 -2463.99 -1463.27 3004.54 -2269.6 -1528.13 4578.05 -2654.13 -1466.35 3130.76 -2313.91 -1518.92 4438.62 -2633.22 -1471.96 3344.16 -2382.68 -1505.63 4208.92 -2593.57 -1480.41 3619.92 -2461.11 -1491.93 3922.24 -2534.78 -1589.14 2774.44 -2220.65 -1590.59 4353.67 -2641.27 -1586.23 2900.39 -2267.5 -1586.23 4212.62 -2616.69 -1582.16 3113.52 -2340.68 -1581.16 3980.87 -2571.22 -1578.84 3389.39 -2425.04 -1578.26 3692.53 -2505.56 176.415 3449.72 -917.453 -84.7083 4296.3 -1599.92 159.605 3504.97 -985.068 -56.5358 4209.09 -1551.75 129.705 3604.11 -1093.42 -12.4719 4070.07 -1467.66 88.1717 3742.08 -1223.39 38.6408 3905.07 -1354.11 -226.871 2489.84 -971.616 -419.081 3382.52 -1733.08 -238.116 2547.45 -1044.67 -397.276 3289.32 -1676.99 -258.751 2650.9 -1162.62 -363.496 3141.35 -1580.24 -288.433 2795.29 -1305.67 -324.935 2966.74 -1451.55 151.692 3377.32 -924.295 -105.837 4229.68 -1614.3 135.182 3432.9 -992.498 -77.9761 4141.82 -1565.44 105.781 3532.64 -1101.85 -34.4277 4001.76 -1480.22 64.8824 3671.5 -1233.12 16.0386 3835.59 -1365.29 -180.529 2581.76 -969.589 -381.638 3472.2 -1725.25 -192.473 2639.29 -1042.34 -358.982 3379.39 -1669.84 -214.277 2742.6 -1159.7 -323.842 3231.96 -1574.12 -245.466 2886.77 -1301.86 -283.644 3057.85 -1446.63 107.587 3253.78 -934.845 -143.309 4114.88 -1637.06 91.6269 3309.83 -1003.98 -116.033 4026 -1587.06 63.1413 3410.47 -1114.94 -73.445 3884.37 -1500 23.4062 3550.65 -1248.3 -24.1741 3716.42 -1382.8 -109.643 2729.6 -965.019 -323.934 3615.69 -1710.64 -122.633 2786.95 -1037.19 -300.029 3523.58 -1656.33 -146.18 2889.93 -1153.46 -262.886 3377.11 -1562.35 -179.61 3033.61 -1294.04 -220.271 3203.95 -1436.87 45.6592 3091.29 -946.647 -195.445 3962.04 -1663.71 30.505 3147.87 -1016.89 -169.051 3871.99 -1612.29 3.35742 3249.47 -1129.74 -127.898 3728.58 -1522.94 -34.6746 3391.07 -1265.62 -80.3977 3558.64 -1402.97 -29.7112 2908.48 -957.248 -258.183 3787.91 -1689.48 -43.8385 2965.51 -1028.55 -232.95 3696.75 -1636.57 -69.2796 3067.92 -1143.27 -193.675 3551.66 -1544.8 -105.134 3210.74 -1281.68 -148.47 3379.91 -1421.94 526.747 4847.44 -720.464 245.073 5547.53 -1220.63 507.815 4893.41 -772.072 274.672 5476.16 -1187.49 474.571 4975.93 -854.086 321.218 5361.96 -1128.51 429.106 5090.66 -951.154 375.684 5225.78 -1047.03 404.027 4257.1 -818.195 121.77 5029.94 -1403.71 385.187 4307.52 -877.72 151.651 4950.93 -1363.9 352.073 4398.24 -972.573 198.534 4824.54 -1293.65 306.695 4524.7 -1085.36 253.225 4673.93 -1197.51 518.423 4802.27 -728.827 236.278 5508.87 -1235.79 499.469 4848.56 -781.058 265.968 5436.82 -1202.11 466.193 4931.74 -864.082 312.63 5321.5 -1142.21 420.685 5047.52 -962.389 367.196 5183.96 -1059.56 416.892 4312.58 -809.852 134.222 5079.55 -1387.7 397.992 4362.56 -868.68 164.133 5001.17 -1348.5 364.796 4452.56 -962.395 211.059 4875.74 -1279.27 319.339 4578.08 -1073.77 265.803 4726.23 -1184.46 503.856 4725.35 -742.651 221.088 5442.6 -1261.11 484.869 4772.19 -795.946 250.895 5369.44 -1226.51 451.548 4856.49 -880.692 297.71 5252.3 -1165.09 405.982 4973.99 -981.104 352.404 5112.57 -1080.46 437.108 4402.36 -796.055 153.96 5159.46 -1361.33 418.139 4451.65 -853.727 183.903 5082.13 -1323.11 384.847 4540.45 -945.558 230.878 4958.32 -1255.54 339.297 4664.38 -1054.62 285.684 4810.7 -1162.9 484.01 4624.57 -760.049 200.751 5355.06 -1293.37 464.997 4672.15 -814.734 230.654 5280.51 -1257.61 431.641 4757.89 -901.726 277.591 5161.13 -1194.23 386.031 4877.52 -1004.88 332.387 5018.73 -1107.06 460.766 4511.84 -778.679 177.366 5256.24 -1328.35 441.755 4560.28 -834.897 207.314 5180.24 -1291.34 408.403 4647.59 -924.371 254.304 5058.54 -1225.81 362.795 4769.47 -1030.55 309.138 4913.38 -1135.85 -142.588 6565.31 -1463.32 -469.684 7539.38 -1413.75 -173.614 6649.4 -1468.36 -444.186 7460.29 -1427.18 -223.426 6789.36 -1472.89 -401.262 7326.58 -1445.69 -283.713 6966.06 -1471.84 -345.633 7154.12 -1462.34 -279.343 6159.53 -1718.8 -626.678 7256.45 -1705.01 -312.147 6253.46 -1728.22 -599.507 7166.3 -1716.68 -364.884 6409.99 -1739.44 -553.792 7014.49 -1731.76 -428.82 6608.07 -1745.85 -494.604 6819.62 -1743.15 -152.97 6535.39 -1484.42 -482.014 7518.61 -1437.03 -184.135 6620.21 -1489.78 -456.326 7438.69 -1450.4 -234.19 6761.4 -1494.79 -413.097 7303.62 -1468.76 -294.804 6939.68 -1494.23 -357.098 7129.48 -1485.14 -266.473 6198.58 -1696.21 -612.455 7283.63 -1678.49 -299.166 6291.53 -1705.19 -585.408 7194.52 -1690.39 -351.718 6446.44 -1715.74 -539.892 7044.43 -1705.89 -415.42 6642.43 -1721.36 -480.948 6851.7 -1717.9 -170.711 6483.85 -1519.6 -502.944 7482.74 -1476.18 -202.13 6569.92 -1525.52 -476.971 7401.38 -1489.41 -252.615 6713.21 -1531.35 -433.274 7263.98 -1507.45 -313.786 6894.2 -1531.66 -376.692 7086.98 -1523.3 -245.625 6261.52 -1659.17 -589.154 7327.53 -1635.32 -278.096 6352.94 -1667.47 -562.307 7240.1 -1647.57 -330.287 6505.25 -1676.95 -517.125 7092.77 -1663.72 -393.545 6697.89 -1681.32 -458.608 6903.51 -1676.68 -194.037 6415.36 -1564.42 -530.179 7434.97 -1526.64 -225.803 6503.08 -1571.07 -503.89 7351.72 -1539.61 -276.859 6649.14 -1578 -459.66 7211.23 -1557.16 -338.741 6833.71 -1579.51 -402.395 7030.44 -1572.22 -220.195 6337.72 -1613.1 -560.308 7380.74 -1582.15 -252.338 6427.3 -1620.58 -533.719 7295.37 -1594.78 -304.003 6576.51 -1628.79 -488.978 7151.42 -1611.66 -366.625 6765.14 -1631.72 -431.038 6966.35 -1625.71 -1115.67 8056.57 -1817.47 -1247.89 8975.64 -1422.52 -1132.59 8143.57 -1788.19 -1241.69 8907.94 -1460.19 -1158.07 8284.92 -1737.75 -1229.55 8790.72 -1521.1 -1185.91 8457.54 -1670.81 -1210.74 8634.45 -1595.12 -1341.14 7649.73 -2217.65 -1481.97 8781.28 -1830.94 -1358.56 7755.1 -2190.95 -1474.74 8696.08 -1869.84 -1384.94 7926.9 -2144.05 -1461.05 8549.48 -1931.97 -1414.06 8137.85 -2080.2 -1440.5 8355.6 -2006.12 -1134.12 8030.82 -1850.26 -1267.68 8964.78 -1454.64 -1151.15 8119.15 -1821.07 -1261.36 8895.89 -1492.52 -1176.82 8262.68 -1770.73 -1249.04 8776.64 -1553.71 -1204.9 8438 -1703.8 -1230 8617.77 -1627.98 -1321.9 7692.19 -2181.66 -1462.95 8801.77 -1792.6 -1339.37 7795.68 -2154.58 -1455.76 8718.39 -1831.52 -1365.85 7964.37 -2107.12 -1442.11 8574.85 -1893.76 -1395.06 8171.38 -2042.7 -1421.56 8384.89 -1968.17 -1165.25 7984.11 -1904.93 -1300.91 8943.84 -1508.66 -1182.45 8074.71 -1875.93 -1294.41 8872.85 -1546.85 -1208.42 8221.98 -1825.81 -1281.79 8750.08 -1608.45 -1236.87 8401.98 -1758.98 -1262.36 8586.69 -1683.04 -1289.71 7759.81 -2123.05 -1430.61 8834.85 -1730.89 -1307.24 7860.36 -2095.42 -1423.51 8754.35 -1769.78 -1333.78 8024.14 -2047.16 -1409.97 8615.62 -1832.09 -1363.03 8224.94 -1981.94 -1389.51 8431.81 -1906.82 -1205.32 7918.31 -1974.66 -1343.29 8912.68 -1578.49 -1222.7 8011.93 -1945.99 -1336.57 8838.85 -1617 -1248.97 8164.2 -1896.28 -1323.59 8711.32 -1678.99 -1277.81 8350.46 -1829.75 -1303.74 8541.82 -1753.84 -1248.9 7839.81 -2050.68 -1388.78 8874.29 -1655.89 -1266.4 7936.89 -2022.48 -1381.84 8797.16 -1694.65 -1292.88 8094.9 -1973.41 -1368.53 8664.07 -1756.9 -1322.01 8288.4 -1907.43 -1348.3 8487.46 -1831.8 -714.808 8456.09 -1146.05 -815.59 9109.76 -800.008 -728.091 8519.05 -1118.68 -811.269 9062.68 -831.275 -748.01 8620.93 -1072.34 -802.523 8980.64 -882.48 -769.573 8744.59 -1012.22 -788.517 8870.41 -945.888 -893.467 8310.08 -1438.38 -1009.77 9067.5 -1064.12 -908.654 8382.5 -1409.39 -1004.73 9012.1 -1098.54 -931.498 8499.75 -1360.02 -994.541 8916.1 -1154.67 -956.337 8642.34 -1295.51 -978.262 8787.91 -1223.76 -729.029 8446.2 -1169.05 -831.226 9106.57 -820.489 -742.458 8509.85 -1141.56 -826.836 9058.95 -852.057 -762.617 8612.79 -1094.97 -817.944 8976.04 -903.725 -784.475 8737.68 -1034.47 -803.707 8864.71 -967.657 -877.401 8324.57 -1411.3 -992.563 9070.9 -1039.31 -892.435 8396.01 -1382.43 -987.59 9016.34 -1073.47 -915.058 8511.63 -1333.29 -977.511 8921.8 -1129.2 -939.665 8652.15 -1269.13 -961.389 8795.55 -1197.82 -753.058 8428.59 -1207.85 -857.596 9100.9 -855.151 -766.744 8493.42 -1180.13 -853.097 9052.3 -887.196 -787.32 8598.19 -1133.12 -843.976 8967.8 -939.605 -809.67 8725.24 -1071.99 -829.373 8854.48 -1004.38 -851.061 8347.93 -1367.42 -964.224 9076.86 -999.258 -865.827 8417.85 -1338.78 -959.351 9023.66 -1032.99 -888.057 8530.93 -1290.06 -949.456 8931.45 -1088.06 -912.248 8668.25 -1226.49 -933.609 8808.26 -1155.92 -784.156 8404.34 -1258.11 -891.606 9093.24 -900.266 -798.188 8470.72 -1230.09 -886.982 9043.28 -932.882 -819.305 8577.96 -1182.52 -877.593 8956.53 -986.184 -842.277 8708.01 -1120.59 -862.554 8840.35 -1051.99 -818.393 8376.09 -1313.75 -928.872 9084.74 -950.509 -832.807 8444.23 -1285.4 -924.119 9033.16 -983.711 -854.508 8554.36 -1237.23 -914.462 8943.7 -1037.93 -878.129 8687.99 -1174.44 -898.989 8824.08 -1104.82 -810.687 9596.99 -412.504 -731.507 9877.12 -96.3612 -806.043 9626.63 -383.567 -740.333 9858.89 -121.077 -797.477 9673.34 -336.354 -754.113 9826.43 -163.022 -785.13 9728 -278.176 -769.989 9781.41 -217.634 -1007.81 9640.12 -623.103 -920.354 9970.29 -249.677 -1003.07 9674.43 -589.099 -930.417 9948.43 -279.066 -994.069 9728.79 -533.56 -946.059 9909.62 -328.849 -980.697 9792.9 -465.005 -963.92 9856.03 -393.506 -826.408 9600.33 -428.335 -746.671 9883.22 -107.563 -821.771 9630.26 -398.994 -755.636 9864.68 -132.673 -813.209 9677.37 -351.118 -769.595 9831.79 -175.267 -800.838 9732.46 -292.115 -785.618 9786.31 -230.694 -990.188 9635.28 -602.719 -903.473 9960.1 -234.602 -985.487 9669 -569.15 -913.501 9938.4 -263.535 -976.577 9722.37 -514.342 -929.053 9900.02 -312.558 -963.36 9785.28 -446.729 -946.763 9847.27 -376.254 -852.986 9605.71 -455.315 -772.225 9893.93 -126.834 -848.359 9636.12 -425.284 -781.42 9874.83 -152.578 -839.792 9683.97 -376.283 -795.684 9841.1 -196.228 -827.358 9739.93 -315.887 -811.974 9794.69 -253.001 -961.226 9628.08 -570.078 -875.771 9944.31 -210.511 -956.569 9660.94 -537.237 -885.697 9922.99 -238.733 -947.785 9712.84 -483.643 -901.051 9885.46 -286.563 -934.795 9773.92 -417.567 -918.487 9834.12 -348.737 -887.381 9612.47 -490.79 -805.185 9908.66 -152.455 -882.761 9643.56 -459.86 -814.657 9888.79 -178.986 -874.163 9692.49 -409.397 -829.307 9853.85 -223.959 -861.603 9749.79 -347.201 -845.963 9806.02 -282.438 -925.209 9620.12 -530.783 -841.353 9926.16 -181.632 -920.581 9652.04 -498.868 -851.087 9905.49 -209.018 -911.91 9702.38 -446.797 -866.127 9869.19 -255.436 -899.157 9761.46 -382.618 -883.191 9819.6 -315.787 -362.147 10018.3 242.31 -388.909 10135.9 403.133 -366.31 10028.8 254.602 -388.128 10126.5 388.128 -372.293 10046.2 275.588 -386.37 10110.8 363.757 -378.342 10067.7 303.129 -383.181 10090.3 333.925 -617.053 10079.9 187.328 -596.937 10294.5 386.132 -619.619 10099.5 202.974 -603.024 10277.5 368.034 -622.153 10131.4 229.477 -611.283 10248.9 338.469 -622.257 10170.7 263.902 -618.481 10211.8 301.971 -382.932 10015.8 242.401 -406.544 10142 405.819 -387.074 10027.1 254.94 -406.231 10132 390.634 -392.902 10045.7 276.33 -405.184 10115.1 365.941 -398.561 10068.8 304.367 -402.764 10093.1 335.669 -593.074 10067.3 196.33 -577.694 10273.9 391.136 -595.969 10086.1 211.67 -583.163 10257.6 373.427 -599.026 10116.8 237.657 -590.541 10230 344.481 -599.799 10154.7 271.41 -596.829 10194.2 308.724 -417.296 10014.9 240.438 -435.308 10155.4 408.377 -421.383 10027.5 253.408 -435.847 10144.3 392.874 -426.929 10048.2 275.501 -436.077 10125.4 367.618 -431.91 10074 304.399 -435.009 10100.9 336.579 -554.828 10049.2 209.672 -547.037 10242.6 398.218 -558.157 10066.8 224.505 -551.46 10227.4 381.083 -561.949 10095.4 249.647 -557.34 10201.5 353.067 -563.745 10130.9 282.319 -562.091 10168 318.448 -460.905 10019.6 234.33 -471.207 10177.7 408.403 -464.865 10033.8 247.878 -472.934 10165.2 392.45 -469.983 10057.2 270.914 -474.914 10144 366.413 -474.038 10086.1 300.965 -475.667 10116.5 334.329 -508.654 10031.7 223.503 -509.93 10208.2 404.746 -512.363 10047.6 237.705 -513.029 10194.3 388.231 -516.887 10073.7 261.809 -517.002 10170.6 361.241 -519.84 10106.1 293.178 -519.804 10139.9 327.917 -289.732 9885.2 117.467 -359.973 10013.1 236.448 -296.675 9896.42 125.936 -355.254 10002.5 224.61 -307.901 9914.86 140.639 -346.797 9984.75 205.703 -321.466 9937.86 160.397 -335.102 9962.24 183.1 -550.035 9837.02 26.0692 -615.54 10070.4 179.834 -557.908 9856.92 37.0422 -612.123 10050.6 164.664 -569.967 9889.91 56.1179 -605.626 10017.7 140.352 -583.469 9931.55 81.7567 -595.891 9976.19 111.169 -309.396 9873.67 115.098 -380.748 10010.2 236.419 -316.443 9885.61 123.729 -375.993 9998.82 224.339 -327.856 9905.25 138.714 -367.431 9979.86 205.052 -341.666 9929.77 158.853 -355.548 9955.79 182.001 -524.213 9834.03 38.9569 -591.396 10058.1 188.983 -531.902 9853.17 49.6241 -587.64 10039.1 174.122 -543.841 9884.89 68.1793 -580.61 10007.6 150.335 -557.47 9924.88 93.145 -570.304 9967.71 121.828 -342.614 9857.73 108.843 -415.108 10008.8 234.246 -349.78 9870.88 117.749 -410.323 9996.08 221.743 -361.399 9892.52 133.219 -401.667 9975.03 201.786 -375.466 9919.58 154.021 -389.6 9948.36 177.946 -483.392 9831.85 58.3563 -552.938 10040.6 202.571 -490.876 9849.75 68.5719 -548.748 10022.9 188.219 -502.704 9879.36 86.3497 -541.025 9993.59 165.28 -516.548 9916.63 110.293 -529.958 9956.5 137.844 -385.996 9843.14 96.8965 -458.747 10012.7 227.855 -393.251 9857.82 106.174 -454.008 9998.39 214.781 -404.991 9882.02 122.303 -445.401 9974.67 193.916 -419.162 9912.35 144.012 -433.345 9944.67 169.001 -434.915 9834.17 79.2132 -506.591 10023.9 216.709 -442.256 9850.51 88.9399 -502.044 10007.8 202.986 -454.037 9877.49 105.863 -493.744 9981.22 181.078 -468.105 9911.39 128.659 -482.028 9947.58 154.908 -155.365 10163.7 191.818 -194.599 10173.7 319.924 -158.674 10165.3 201.206 -191.083 10173.7 307.439 -164.117 10167.8 217.37 -185.381 10173.4 287.412 -170.965 10170.3 238.864 -178.359 10172.2 263.304 -352.052 10020 241.927 -380.276 10133.4 401.522 -356.224 10030.2 254.103 -379.283 10124.4 386.603 -362.278 10047 274.899 -377.197 10109.2 362.384 -368.512 10067.7 302.205 -373.65 10089.5 332.76 -169.415 10143.5 199.449 -209.762 10162 330.57 -172.935 10145.8 209.104 -206.281 10161.2 317.848 -178.686 10149.3 225.71 -200.578 10159.5 297.416 -185.841 10153.3 247.757 -193.457 10156.9 272.779 -331.825 10024.6 240.738 -362.848 10129.2 397.817 -336.011 10034.1 252.68 -361.446 10120.9 383.076 -342.201 10049.5 273.09 -358.731 10106.9 359.175 -348.787 10068.7 299.919 -354.498 10088.7 329.982 -193.541 10113.4 210.618 -234.824 10146.1 346.541 -197.337 10116.8 220.694 -231.47 10144 333.438 -203.469 10122.3 237.999 -225.889 10140.3 312.356 -210.964 10128.7 260.925 -218.767 10135 286.875 -300.049 10035.3 237.622 -335.027 10125 390.533 -304.244 10043.4 249.186 -333.033 10118 376.1 -310.61 10056.8 268.969 -329.412 10106.1 352.737 -317.682 10073.3 295.017 -324.2 10090.5 324.267 -225.711 10081.3 222.165 -266.618 10132.4 363.851 -229.738 10086.2 232.743 -263.55 10128.7 350.29 -236.143 10094.2 250.884 -258.344 10122.3 328.428 -243.786 10103.8 274.863 -251.511 10113.6 301.93 -262.739 10054.1 231.536 -301.409 10125.2 379.12 -266.896 10060.7 242.628 -298.813 10119.7 365.095 -273.369 10071.4 261.627 -294.289 10110.4 342.438 -280.853 10084.6 286.688 -288.123 10098.2 314.9 -110.329 10133.4 98.3497 -153.749 10162.8 187.36 -114.507 10136.5 104.581 -150.396 10161 178.378 -121.185 10141.4 115.444 -144.749 10157.6 164.085 -129.216 10147.2 130.12 -137.416 10152.9 147.089 -280.292 9891.32 118.246 -349.883 10015 236.121 -287.173 9902.19 126.636 -345.187 10004.8 224.396 -298.29 9920.04 141.205 -336.79 9987.67 205.667 -311.712 9942.31 160.782 -325.205 9965.9 183.276 -120.634 10106 102.86 -167.69 10142.3 194.862 -125.176 10109.6 109.328 -164.099 10139.8 185.613 -132.441 10115.5 120.592 -158.022 10135.4 170.881 -141.18 10122.4 135.79 -150.087 10129.4 153.335 -261.445 9904.93 119.414 -329.667 10020 235.045 -268.192 9915.08 127.645 -325.016 10010.5 223.548 -279.074 9931.74 141.939 -316.744 9994.67 205.18 -292.194 9952.49 161.147 -305.387 9974.45 183.215 -139.358 10063.2 109.197 -191.67 10111.7 205.826 -144.435 10067.8 116.026 -187.755 10108.1 196.159 -152.563 10075.3 127.904 -181.075 10101.9 180.739 -162.341 10084.4 143.905 -172.277 10093.6 162.341 -232.088 9930.45 120.157 -297.915 10031.3 232.113 -238.589 9939.4 128.126 -293.344 10023 220.984 -249.049 9954.07 141.966 -285.288 10009.2 203.203 -261.642 9972.31 160.566 -274.319 9991.56 181.936 -165.967 10014.2 115.155 -223.709 10078.9 217.131 -171.609 10020.1 122.391 -219.491 10073.8 206.968 -180.654 10029.8 134.968 -212.222 10065.2 190.74 -191.531 10041.7 151.887 -202.546 10054.1 171.35 -198.296 9967.82 118.99 -260.65 10050.9 226.254 -204.428 9975.28 126.619 -256.214 10044.2 215.586 -214.274 9987.49 139.871 -248.482 10033 198.543 -226.117 10002.6 157.687 -238.068 10018.5 178.162 -189.264 10144.3 477.643 -126.332 10053.6 610.568 -185.302 10139.3 489.573 -132.533 10064.2 599.948 -177.951 10129.8 509.132 -142.679 10080.5 582.023 -167.472 10116.1 533.399 -155.051 10098.9 558.86 -325.19 10213.6 588.828 -158.474 10222 738.185 -314.905 10217.1 602.9 -175.471 10224.3 727.012 -295.83 10221.8 625.742 -202.926 10226.9 707.784 -268.538 10225.8 653.647 -235.892 10227.7 682.323 -201.74 10142.8 490.903 -131.94 10062 624.871 -197.369 10138.6 502.99 -138.904 10071.7 614.241 -189.267 10130.5 522.784 -150.241 10086.6 596.263 -177.715 10118.5 547.302 -163.985 10103.2 572.971 -313.496 10201.1 582.596 -157.897 10202 730.282 -303.863 10203.9 596.444 -173.758 10205 719.165 -286.031 10207.5 618.948 -199.366 10208.6 700.066 -260.555 10210.3 646.482 -230.107 10210.7 674.835 -221.693 10143.7 511.131 -139.809 10078.5 647.004 -216.585 10140.7 523.483 -148.081 10086.9 636.332 -207.138 10134.9 543.68 -161.477 10099.5 618.228 -193.669 10125.6 568.639 -177.62 10113.3 594.684 -294.586 10182.8 571.168 -156.352 10171.2 716.162 -285.995 10184.5 584.67 -170.443 10175.1 705.145 -270.124 10186.3 606.643 -193.181 10180.4 686.27 -247.49 10186.7 633.589 -220.465 10184.7 661.419 -245.891 10150.4 533.714 -147.416 10103.7 672.277 -239.754 10149 546.413 -157.433 10110.6 661.517 -228.424 10145.8 567.147 -173.606 10120.6 643.2 -212.283 10139.9 592.703 -193.027 10131.1 619.278 -271.139 10164.2 554.563 -153.054 10136.2 696.328 -263.783 10164.4 567.662 -165.091 10141.5 685.441 -250.21 10163.9 589.013 -184.507 10148.9 666.847 -230.874 10161.3 615.261 -207.8 10156.2 642.462 -196.305 10173.7 326.083 -191.046 10146.7 471.819 -199.302 10173.3 338.768 -194.408 10151.1 459.756 -202.656 10172 359.71 -198.989 10157.5 439.59 -204.2 10169 385.963 -202.817 10163.9 413.861 -380.674 10137.7 408.836 -329.831 10211.8 581.927 -380.907 10146.2 423.898 -338.747 10207.8 567.621 -379.43 10159.5 448.773 -351.633 10200.1 543.685 -374.24 10174.6 479.969 -364.542 10188.8 513.122 -211.441 10162.3 336.843 -203.709 10144.7 485 -214.366 10162.7 349.76 -207.434 10148.4 472.767 -217.549 10162.7 371.079 -212.549 10153.4 452.3 -218.78 10161.4 397.793 -216.934 10158.1 426.162 -363.451 10133.1 405.048 -317.847 10199.6 575.807 -364.097 10140.9 419.936 -326.199 10196.2 561.729 -363.286 10153.1 444.514 -338.232 10189.6 538.157 -358.934 10166.8 475.32 -350.177 10179.6 508.03 -236.427 10147.1 352.995 -224 10144.9 505.095 -239.171 10148.8 366.284 -228.378 10147.2 492.577 -241.976 10151 388.21 -234.458 10150.1 471.611 -242.583 10152.4 415.669 -239.865 10152.1 444.801 -335.927 10128.4 397.62 -298.472 10181.8 564.554 -337.179 10135.1 412.208 -305.919 10179.4 550.832 -337.362 10145.3 436.281 -316.586 10174.6 527.836 -334.289 10156.6 466.431 -327.001 10166.9 498.414 -268.065 10134.2 370.524 -248.667 10150.9 527.502 -270.466 10137.6 384.26 -253.956 10151.6 514.614 -272.624 10142.4 406.92 -261.39 10151.8 493.011 -272.254 10147.2 435.285 -268.252 10150.5 465.359 -302.613 10127.8 386.013 -274.468 10163.9 548.152 -304.495 10132.9 400.203 -280.832 10162.9 534.847 -305.741 10140.6 423.611 -289.873 10160.5 512.539 -304.087 10148.8 452.914 -298.488 10155.8 483.98 -23.2812 10555.9 34.8388 -52.5727 10450.6 160.157 -24.8733 10554 41.1422 -47.1913 10467.2 144.23 -27.1415 10548.1 53.0519 -40.2318 10491.3 120.333 -30.0188 10535.8 70.9848 -34.2022 10516.1 94.2983 -106.555 10147.9 97.4449 -186.373 10180.2 311.461 -114.376 10153.4 110.027 -179.433 10180.7 287.177 -126.482 10161.7 133.037 -168.441 10180 249.568 -140.634 10170.1 166.064 -155.053 10176.6 206.661 -26.4525 10517.1 39.6337 -60.8325 10418.5 174.701 -28.4981 10515.3 46.5767 -55.0595 10434.1 157.775 -31.5177 10509.9 59.6325 -47.4251 10456.8 132.283 -35.3355 10498.4 79.1585 -40.5064 10479.9 104.351 -96.8284 10177.1 92.3239 -171.649 10194.5 300.105 -103.932 10181.7 104.41 -164.718 10196.6 276.327 -114.921 10188.2 126.563 -153.961 10198.3 239.591 -127.837 10194.2 158.462 -141.213 10197.8 197.824 -33.7862 10454 48.0723 -75.7487 10369.2 198.082 -36.5756 10452.7 56.0086 -69.481 10382.9 179.649 -40.8072 10448.3 70.8411 -60.9435 10402.8 151.735 -46.1001 10438.6 92.8272 -52.7575 10422.9 120.905 -81.2701 10228.5 83.4469 -148.698 10221.7 280.708 -87.3053 10231.5 94.7226 -141.777 10226.3 257.821 -96.6372 10235.1 115.463 -131.362 10232.2 222.599 -107.722 10237.3 145.489 -119.557 10236.4 182.776 -46.3186 10376.8 59.355 -96.8 10313.7 226.338 -50.067 10376.5 68.4472 -90.1404 10324.7 206.237 -55.8294 10374.1 85.3388 -80.777 10340.4 175.623 -62.9162 10367.6 110.157 -71.2725 10356 141.525 -63.1422 10297.8 71.8476 -122.227 10262.3 255.155 -68.0023 10299 82.0928 -115.365 10270.1 233.515 -75.5078 10299.5 101.025 -105.389 10280.8 200.375 -84.567 10297.2 128.62 -94.675 10290.8 163.171 -5.2478 11082 3.75011 -7.38439 10966.1 7.08537 -2.85535 11080.3 1.15547 -5.7906 10983.8 6.56143 -0.380093 11074 -0.97569 -3.27328 11010 4.76253 0.486948 11059.9 -0.70702 -0.748973 11037.5 1.80908 -22.0783 10574.9 32.6072 -48.7595 10466.8 152.995 -23.4459 10573 38.5875 -43.5919 10483.8 137.577 -25.3406 10567 49.9189 -36.9927 10508.6 114.489 -27.7462 10554.3 67.0488 -31.4263 10534 89.4144 -5.30047 11035.4 4.10735 -5.83673 10916.9 16.7454 -2.78595 11034.2 2.07454 -3.8917 10935.7 14.6371 0.0852836 11028.4 0.75861 -1.18798 10963.2 10.756 1.6253 11014.5 2.04205 1.0524 10991.8 5.93566 -19.7121 10614.6 28.241 -41.2599 10501.4 138.395 -20.5905 10612.6 33.5164 -36.4986 10519.4 124.037 -21.7037 10606.5 43.6194 -30.5774 10545.4 102.621 -23.1678 10593.3 59.0844 -25.8822 10572.1 79.5104 -6.12937 10959.5 5.64016 -5.75903 10837.7 34.1113 -3.69148 10958.7 4.67664 -3.30421 10857.6 29.5454 -0.607146 10953.3 4.93663 -0.285688 10886.7 22.3695 1.55458 10939.7 8.14328 1.6824 10916.4 14.471 -16.0048 10681.8 21.7191 -30.0277 10562.6 114.853 -16.0297 10680.1 25.736 -25.8372 10581.8 102.294 -15.8687 10674 33.7342 -20.835 10609.6 83.6545 -15.9261 10660.3 46.4548 -17.3043 10638 63.7416 -8.32857 10866.2 9.17027 -9.71722 10742.2 58.2385 -6.39845 10865.3 9.74168 -6.70128 10762.7 50.8363 -3.7217 10860 12.3128 -3.22234 10792.5 39.7401 -1.56332 10846.3 18.3161 -1.2238 10822.8 27.9648 -11.8625 10769.2 14.8199 -18.4005 10645.9 86.5375 -10.845 10768 17.1674 -14.8075 10666.1 76.3659 -9.25808 10762.3 22.488 -10.6689 10695.4 61.2928 -7.93021 10748.5 31.8495 -8.13835 10725.2 45.3359 -8.09182 10957 7.11775 2.79256 10347.4 6.48727 -8.23345 10934.6 6.52816 8.42623 10431.2 1.57231 -5.15639 10886.2 4.09894 12.1138 10556 -2.81954 1.98445 10804.4 -0.0154166 9.49647 10689.6 -3.29265 -51.5321 10457.9 160.861 -46.9275 10066 357.625 -55.7545 10438.1 177.018 -45.6585 10114.9 339.007 -58.497 10400.4 203.564 -46.6706 10188.8 309.394 -56.5508 10343.6 237.094 -51.202 10270.1 273.79 -6.78337 10907.2 17.6429 0.63658 10309.3 41.0796 -7.41259 10883.9 18.9256 6.33661 10390.2 34.2573 -5.07859 10834.8 19.7927 10.2418 10511 26.5215 1.25335 10753.4 20.0716 8.07775 10640.8 21.6204 -43.8363 10492.1 145.733 -39.7695 10078.1 331.796 -47.6774 10471.3 160.79 -37.823 10129.8 313.682 -49.8862 10431.5 185.508 -38.0508 10207.9 285.155 -47.5118 10371.5 216.796 -42.1201 10293.9 251.292 -7.04631 10827.3 36.3401 -3.49878 10252.8 96.2701 -8.3641 10803.1 40.4995 2.08352 10328.7 86.6186 -7.05797 10753.6 46.4213 6.01132 10442.5 73.881 -1.79003 10673.8 53.4137 4.23137 10565.7 62.2981 -32.3216 10552.6 121.282 -29.4614 10102 287.56 -35.6156 10530.3 134.43 -26.4641 10158.5 270.522 -37.0719 10487.4 155.931 -25.4547 10243.8 244.179 -34.1256 10422.3 183.199 -28.7521 10337.7 213.641 -11.3612 10731.5 61.9838 -9.96296 10192.4 162.302 -13.3897 10707 69.4093 -4.89174 10262 149.645 -13.108 10658.4 81.0441 -1.46186 10366.6 131.512 -8.80165 10582.2 95.5705 -3.30936 10480.8 112.604 -20.3797 10635.4 91.7374 -18.862 10140.2 228.956 -23.0643 10611.6 102.277 -14.7187 10202.9 213.736 -23.6916 10565.4 119.314 -12.3528 10297.6 190.88 -20.1275 10494.4 140.875 -14.7913 10401.4 165.391 -51.561 10036.6 379.17 51.5192 9413.31 400.522 -51.3972 9986.59 396.274 40.9697 9471.64 413.848 -44.9877 9903.24 418.283 21.5817 9565.32 429.759 -28.3858 9796.53 434.851 -3.81799 9679.01 438.83 -119.014 10041.7 610.917 193.194 9724.86 590.145 -104.317 10018.7 629.343 162.706 9758.4 613.292 -72.0488 9979.97 652.038 110.691 9810.33 642.422 -20.0467 9928.97 666.319 45.2962 9870.25 663.193 -58.5738 10028.6 403.919 59.3231 9440.53 421.651 -57.492 9981.38 421.283 47.1833 9495.68 436.033 -49.4148 9902.77 443.558 25.2875 9584.16 453.321 -30.452 9802.19 460.106 -3.04224 9691.41 463.522 -113.603 10034.2 595.583 177.001 9698.83 578.668 -100.483 10009.4 614.046 148.425 9733.65 601.158 -71.0081 9967.73 636.908 99.6246 9787.85 629.349 -22.7845 9913.17 651.601 38.295 9850.86 649.185 -69.348 10019.3 442.665 74.0558 9485.3 454.516 -66.6202 9976.49 460.399 59.2734 9535.7 470.545 -55.5786 9905.33 483.036 33.1679 9616.36 489.987 -32.4725 9814.27 499.494 -0.149466 9713.84 501.981 -104.885 10024.1 568.608 151.801 9655.56 557.851 -94.2318 9996.14 587.072 126.262 9692.74 579.196 -69.1197 9949.25 610.111 82.5425 9751.08 605.779 -26.7996 9888.39 625.378 27.6047 9819.68 624.07 -81.7186 10014.1 487.706 95.8037 9541.24 492.257 -76.6862 9976.58 505.802 77.6418 9586.51 510.19 -61.5315 9914.09 528.75 46.0788 9658.62 532.149 -32.7543 9833.97 544.979 6.17828 9745.24 546.285 -93.9428 10016.1 531.55 122.968 9600.64 528.268 -86.1476 9983.71 549.902 101.072 9641.34 548.05 -66.0922 9929.67 572.993 63.3922 9705.72 572.489 -30.6293 9860.06 588.816 15.9801 9782.34 588.809 -0.84259 10304.6 9.45589 7.37216 9076.64 5.80732 -6.37002 10214.4 14.2031 9.1677 9198.36 5.78151 -9.65932 10060.1 17.9297 7.76967 9392.03 7.93288 -6.43086 9855.75 17.1862 1.34886 9623.06 12.6472 -48.0383 10041.2 366.787 48.0178 9400.03 389.891 -48.3002 9989.75 383.754 38.2367 9460 402.687 -42.6676 9904.02 405.616 20.0538 9556.34 417.913 -27.1728 9794.24 422.179 -3.94868 9673.3 426.426 -3.01502 10268 44.9386 6.80103 9103.25 48.8171 -8.5947 10181.4 51.4684 7.98014 9217.6 49.9298 -12.0038 10033.6 57.9238 5.86955 9399.9 52.993 -8.8835 9838.75 59.9979 -1.00533 9618.07 57.3514 -41.2657 10051.8 340.758 41.1715 9372.51 366.812 -42.3694 9997.41 357.363 32.8849 9436 378.521 -38.2559 9906.65 378.792 17.0358 9538.08 392.373 -24.9049 9790.3 395.184 -4.27101 9662.08 399.835 -7.06051 10214.1 101.443 7.74102 9148.08 115.632 -12.4822 10133.2 110.599 7.79561 9251.21 118.597 -15.6845 9995.91 121.064 4.27518 9416.12 123.233 -12.2492 9816.32 127.241 -3.72706 9614.42 127.264 -31.5511 10073.3 296.07 30.9482 9326.49 324.871 -33.9318 10013.8 311.821 24.8722 9396.39 334.794 -32.0724 9914.3 332.106 12.442 9508.81 346.5 -21.8438 9786.48 347.694 -4.95399 9645.37 352.539 -13.2226 10157 168.856 12.0806 9205.63 192.218 -18.0448 10083.3 180.765 10.491 9296.28 197.474 -20.305 9958.9 195.402 4.72831 9441.66 204.224 -15.6132 9797.43 205.763 -5.40846 9617.34 208.322 -21.5959 10108.4 236.668 20.307 9268.09 265.127 -25.3359 10042.1 250.868 16.6043 9347.21 272.804 -25.8059 9930.92 268.918 7.76771 9474.37 282.011 -18.7324 9787.51 282.556 -5.61809 9628.59 286.8 5.70297 9016.57 6.26851 -2.65179 8203.43 -16.4437 2.70884 8898.84 7.63498 -2.27619 8224.84 -6.33149 -0.553837 8723.85 10.3773 -2.24155 8279.72 5.17857 -2.37232 8538.61 13.0125 -2.58346 8383.7 12.1467 52.3338 9370.58 382.711 120.618 8998.42 -2.35069 61.0429 9313.16 366.027 119.363 9004.99 48.6641 74.9426 9228.8 332.558 114.788 9025.98 124.925 90.9127 9141.3 279.244 105.145 9070.62 207.176 5.47949 9046.88 48.556 0.764929 8291.14 -14.6652 3.1314 8936.46 48.1546 0.927644 8310.03 0.346807 0.710495 8772.58 47.1896 0.660983 8359.79 19.4738 -0.368646 8599.57 43.8426 -0.0544112 8455.59 35.0716 44.7419 9341.33 360.232 101.756 8946.42 -3.08263 51.9467 9280.53 344.9 100.704 8953.42 45.8213 63.4957 9191.13 313.967 96.8566 8975.77 118.596 76.8275 9098.31 264.298 88.7546 9023.24 196.558 7.03624 9097.31 114.211 8.87945 8426.78 -11.9941 5.84754 8997.98 110.99 8.76903 8442.16 10.5422 4.98111 8850.87 104.165 8.05306 8484.59 41.404 5.32244 8696.2 91.4382 6.66488 8568.45 70.3594 33.4101 9292.17 319.299 74.454 8855.55 -4.44334 38.3948 9225.23 306.266 73.6543 8863.44 40.4163 46.5237 9126.67 279.732 70.7766 8888.37 106.61 56.0868 9024.17 236.526 64.7866 8941.07 176.63 12.2488 9161.08 189.392 23.8775 8581.96 -9.08096 12.7287 9074 182.797 23.5207 8593.97 21.9029 14.1899 8945.35 169.055 22.2497 8629.02 66.0154 16.7781 8810.7 145.411 19.8133 8700.36 110.178 21.5662 9229.24 260.856 46.5194 8730.8 -6.46662 24.1707 9153.39 250.845 45.9486 8740.27 32.3011 28.7197 9041.54 230.238 43.9703 8769.36 88.7323 34.4597 8924.93 195.974 39.9915 8830 147.211 702.585 5984.99 -449.462 457.374 6524.51 -728.167 687.233 6020 -480.033 484.451 6469.82 -711.438 659.769 6083.35 -527.967 526.533 6381.92 -680.771 621.284 6172 -583.525 574.905 6276.65 -636.897 609.113 5349.28 -615.074 341.6 5980.67 -1031.43 590.493 5390.66 -659.225 369.078 5916.32 -1004.98 558.125 5465.02 -728.96 412.49 5813.3 -957.322 514.41 5568.5 -810.723 463.677 5690.43 -890.498 696.626 5942.07 -462.737 449.882 6488.52 -751.815 680.981 5977.4 -494.371 476.949 6433.06 -734.356 653.105 6041.42 -543.983 519.064 6343.91 -702.427 614.228 6131.15 -601.52 567.572 6237.18 -656.856 618.881 5414.5 -599.684 353.876 6037.31 -1003.21 600.405 5455.1 -642.65 381.12 5973.8 -977.702 568.324 5528.26 -710.436 424.134 5872.08 -931.691 525.036 5630.3 -789.79 474.817 5750.7 -867.073 685.862 5866.27 -484.923 436.51 6424.64 -791.829 669.696 5902.23 -518.379 463.526 6367.86 -773.128 641.089 5967.48 -570.876 505.658 6276.62 -739.037 601.516 6059.08 -631.823 554.379 6167.45 -690.545 634.413 5518.12 -574.897 373.213 6126.95 -957.502 616.283 5557.54 -615.882 400.218 6064.85 -933.506 584.788 5628.8 -680.439 442.776 5965.29 -890.138 542.246 5728.52 -755.841 492.8 5846.4 -829.076 670.755 5762.39 -513.382 417.922 6336.47 -843.85 653.905 5799.29 -549.227 444.855 6277.99 -823.514 624.326 5866.28 -605.522 487.002 6184.07 -786.564 583.812 5960.36 -670.98 536.016 6071.76 -734.197 652.758 5640.84 -544.702 395.836 6232.56 -901.639 635.2 5678.94 -583.186 422.735 6172.22 -879.458 604.587 5748.02 -643.708 464.992 6075.38 -839.274 563.023 5844.95 -714.227 514.43 5959.67 -782.518 802.869 5763.63 -0.0256231 709.713 5968.93 -434.187 800.97 5767.72 -41.2128 723.601 5937.76 -401.951 795.316 5779.89 -107.952 744.209 5891.82 -346.374 783.749 5804.92 -189.274 765.893 5843.93 -272.602 721.129 5086.11 -15.7736 617.885 5330.18 -593.112 720.162 5089.35 -67.7175 634.833 5292.92 -547.26 715.472 5102.31 -152.882 659.449 5237.5 -469.694 703.946 5131.84 -258.512 684.454 5179.23 -369.206 797.725 5717.82 -1.33621 703.907 5925.86 -446.933 796.095 5722.43 -43.364 718.096 5894.46 -413.616 790.723 5735.22 -111.561 739.132 5848.25 -356.28 779.247 5760.75 -194.828 761.207 5800.1 -280.359 730.077 5155.8 -15.4935 627.593 5395.8 -578.3 729.314 5159.75 -66.1279 644.447 5359.37 -533.639 724.842 5173.24 -149.161 668.986 5305.36 -458.056 713.435 5202.48 -252.161 693.969 5248.7 -360.096 788.512 5637.05 -3.89169 693.414 5849.8 -468.216 787.282 5642.28 -47.2353 708.128 5817.91 -433.058 782.328 5655.9 -117.74 729.899 5771.04 -372.759 770.98 5682.21 -204.134 752.629 5722.23 -293.267 744.021 5266.35 -14.1253 642.964 5500 -554.481 743.439 5271.19 -62.8866 659.54 5464.83 -511.801 739.162 5285.3 -142.809 683.767 5412.87 -439.461 727.887 5314.04 -241.866 708.54 5358.52 -345.533 775.611 5526.46 -7.48837 678.66 5745.49 -495.494 774.777 5532.07 -52.4459 694.048 5712.78 -457.941 770.239 5546.33 -125.8 716.74 5664.72 -393.818 758.998 5573.53 -216.093 740.267 5614.66 -309.768 760.113 5397.08 -11.2707 661.025 5623.37 -525.512 759.524 5402.56 -58.0581 677.088 5589.52 -485.324 755.241 5417 -134.613 700.671 5539.7 -416.997 744.032 5445.04 -229.242 724.94 5487.72 -327.933 756.212 6389.49 -296.544 529.02 6874.84 -465.209 742.684 6421.81 -315.899 554.685 6826.1 -456.128 718.062 6479.69 -346.044 594.442 6747.74 -438.797 682.899 6559.85 -380.539 639.844 6653.73 -412.972 705.336 6005.09 -443.044 460.864 6541.31 -716.822 690.118 6039.94 -473.111 487.937 6486.99 -700.442 662.843 6102.98 -520.248 529.993 6399.68 -670.376 624.541 6191.12 -574.868 578.293 6295.11 -627.309 753.11 6364.31 -308.493 524.815 6852.14 -485.383 739.522 6396.78 -328.687 550.611 6803.14 -475.747 714.786 6454.94 -360.169 590.568 6724.37 -457.434 679.458 6535.49 -396.252 636.194 6629.86 -430.262 710.839 6045.39 -429.926 467.93 6575.16 -693.747 695.878 6079.96 -458.974 494.968 6521.57 -678.071 668.968 6142.38 -504.502 536.937 6435.43 -649.22 631.029 6229.52 -557.226 585.063 6332.22 -607.783 747.443 6319.49 -328.474 517.073 6812.08 -519.198 733.73 6352.23 -350.078 543.106 6762.58 -508.62 708.771 6410.9 -383.803 583.429 6682.99 -488.647 673.123 6492.22 -422.55 629.469 6587.52 -459.207 719.507 6109.1 -408.493 479.267 6629.15 -656.34 704.913 6143.22 -435.91 506.182 6576.65 -641.79 678.54 6204.69 -478.86 547.917 6492.24 -614.888 641.165 6290.33 -528.538 595.684 6391.08 -576.07 739.374 6257.4 -354.039 506.025 6757.29 -562.664 725.452 6290.53 -377.464 532.375 6707 -550.854 700.135 6349.97 -414.084 573.189 6626.15 -528.72 664.01 6432.45 -456.267 619.799 6529.19 -496.341 729.61 6183.96 -381.948 492.763 6693.39 -610.46 715.387 6217.57 -407.396 519.435 6642.06 -597.266 689.582 6277.99 -447.227 560.763 6559.54 -572.72 652.852 6361.97 -493.215 607.994 6460.6 -537.074 851.489 6190.03 3.58981 762.427 6374.55 -286.84 847.945 6190.7 -24.9628 774.526 6345.35 -266.224 840.592 6198.59 -70.836 792.544 6301.89 -230.248 828.515 6220.02 -126.039 811.835 6256.38 -181.742 805.261 5785.09 0.530152 712.392 5989.08 -428.021 803.227 5788.9 -40.2315 726.142 5958 -396.301 797.431 5800.73 -106.239 746.549 5912.17 -341.569 785.817 5825.51 -186.595 768.049 5864.39 -268.841 848.622 6164.09 3.65677 759.353 6349.3 -298.373 845.098 6164.77 -25.9869 771.504 6319.98 -276.882 837.761 6172.68 -73.63 789.596 6276.34 -239.406 825.677 6194.17 -130.994 808.955 6230.66 -188.921 810.09 5828.1 1.50217 717.763 6029.5 -415.409 807.797 5831.37 -38.3489 731.25 5998.62 -384.734 801.731 5842.54 -102.803 751.275 5953.01 -331.723 790.026 5866.82 -181.132 772.424 5905.41 -261.135 843.369 6117.58 3.7681 753.743 6304.36 -317.655 839.915 6118.37 -27.69 766.006 6274.81 -294.694 832.646 6126.44 -78.2811 784.256 6230.86 -254.701 820.567 6148.14 -139.253 803.763 6184.88 -200.899 817.803 5895.89 2.66143 726.242 6093.38 -394.787 815.143 5898.38 -35.5945 739.357 6062.81 -365.791 808.694 5908.6 -97.3641 758.844 6017.55 -315.569 796.862 5932.15 -172.245 779.496 5970.29 -248.5 835.902 6052.64 3.79283 745.773 6242.1 -342.316 832.609 6053.75 -29.9427 758.229 6212.24 -317.459 825.503 6062.26 -84.2482 776.759 6167.89 -274.225 813.464 6084.38 -149.79 796.526 6121.5 -216.174 826.943 5975.25 3.48064 736.158 6168.46 -369.221 823.923 5976.95 -32.6428 748.905 6138.24 -342.262 817.099 5986.21 -90.871 767.858 6093.42 -295.463 805.145 6008.97 -161.287 788.016 6046.59 -232.781 238.867 7585.5 -501.437 19.5738 8258.03 -409.73 219.216 7645.08 -498.244 37.8889 8205.04 -422.11 187.281 7743.64 -491.038 68.1606 8114.69 -440.772 147.89 7866.99 -478.559 106.428 7996.9 -461.004 140.328 7319.21 -811.702 -111.158 8044.11 -714.321 117.294 7383.24 -810.03 -90.8233 7986.38 -728.994 79.9831 7489.09 -804.449 -56.8778 7888.41 -750.789 34.2491 7621.55 -792.493 -13.4208 7761.27 -773.716 232.851 7566.15 -525.644 11.5502 8240.93 -432.685 213.044 7625.96 -522.527 30.0538 8187.8 -445.349 180.846 7724.9 -515.37 60.6298 8097.2 -464.411 141.112 7848.7 -502.818 99.2682 7979.05 -485.019 150.653 7344.83 -782.645 -97.173 8062.89 -684.915 128.099 7408.36 -780.8 -76.9637 8005.88 -699.505 91.5228 7513.36 -775.005 -43.3094 7909.02 -721.198 46.5975 7644.71 -762.891 -0.36093 7783.17 -744.068 221.752 7532.58 -566.531 -3.11278 8211.93 -471.789 201.654 7592.85 -563.565 15.7067 8158.48 -484.896 168.968 7692.52 -556.53 46.8012 8067.33 -504.577 128.609 7817.2 -543.906 86.0846 7948.42 -525.759 167.16 7386.25 -735.738 -75.0519 8094.03 -637.798 145.3 7448.99 -733.621 -55.0827 8038.06 -652.195 109.792 7552.67 -727.495 -21.9326 7942.82 -673.637 66.0675 7682.33 -715.164 20.1982 7818.88 -696.332 205.868 7487.66 -619.615 -23.9714 8174.36 -523.165 185.325 7548.61 -616.883 -4.75563 8120.32 -536.774 151.907 7649.39 -610.072 27.009 8028.19 -557.15 110.639 7775.42 -597.445 67.1602 7908.02 -578.955 186.726 7436.51 -678.599 -49.1327 8133.1 -581.021 165.579 7498.33 -676.165 -29.5099 8078.19 -595.084 131.193 7600.51 -669.674 2.97813 7984.64 -616.081 88.764 7728.27 -657.151 44.1242 7862.73 -638.419 516.159 6898.87 -469.241 248.521 7556.6 -502.673 490.095 6949.45 -476.872 268.672 7497.18 -504.569 448.477 7036.29 -487.542 302.916 7399.31 -505.782 398.546 7150.51 -497.503 347.857 7277.62 -503.862 447.308 6568.08 -724.293 151.652 7288.13 -812.046 419.713 6624.32 -738.748 175.118 7224.06 -811.738 375.236 6720.52 -759.913 214.449 7118.1 -808.217 321.097 6846.39 -781.587 265.108 6985.62 -798.484 511.889 6876.29 -489.674 242.58 7537.13 -526.831 485.688 6927.14 -497.812 262.882 7477.46 -528.6 443.844 7014.43 -509.244 297.373 7379.16 -529.523 393.623 7129.22 -520.029 342.618 7256.93 -527.1 454.387 6601.58 -700.884 161.735 7313.99 -783.085 426.843 6657.09 -714.671 184.731 7250.45 -783.013 382.531 6752.09 -734.792 223.375 7145.43 -779.997 328.746 6876.5 -755.279 273.325 7014.25 -771.086 504.027 6836.49 -523.929 231.621 7503.33 -567.623 477.578 6887.86 -532.934 252.209 7443.18 -569.151 435.317 6976.02 -545.678 287.161 7344.08 -569.544 384.563 7091.9 -557.893 332.971 7220.78 -566.218 465.781 6655.03 -662.943 177.897 7355.8 -736.332 438.386 6709.45 -675.663 200.215 7293.08 -736.636 394.42 6802.66 -694.124 237.851 7189.53 -734.42 341.255 6924.85 -712.727 286.734 7060.33 -726.81 492.819 6782.09 -567.974 215.953 7458.08 -620.565 466.037 6834.26 -578.121 236.979 7397.21 -621.743 423.209 6923.75 -592.61 272.628 7296.88 -621.379 371.709 7041.32 -606.754 319.272 7171.97 -616.793 479.396 6718.69 -616.422 197.108 7406.5 -679.374 452.27 6771.92 -627.864 218.726 7344.74 -680.122 408.828 6863.16 -644.345 255.299 7242.85 -678.845 356.472 6982.93 -660.715 303.009 7115.88 -672.763 876.906 6414.96 -0.357661 563.515 7090.3 -230.046 867.972 6420.37 -30.279 612.228 6994.83 -222.516 847.494 6456.08 -76.2666 682.286 6846.71 -204.466 810.072 6543.78 -127.284 753.233 6682.89 -172.359 851.998 6201.93 -3.29549 537.266 6873.58 -453.431 843.913 6207.89 -58.392 586.606 6777.92 -434.277 824.272 6243.6 -143.772 657.665 6630.2 -393.745 787.06 6330.24 -240.074 729.646 6467.68 -327.802 875.337 6402.62 -0.56493 563.131 7075.13 -248.605 866.562 6408.16 -32.6895 611.722 6980.02 -240.21 846.293 6443.84 -82.0884 681.617 6832.54 -220.418 809.067 6531.14 -136.962 752.399 6669.53 -185.584 854.626 6225.88 -3.06707 541.022 6895.12 -433.659 846.528 6231.87 -56.0262 590.151 6799.87 -415.625 826.908 6267.53 -138.03 660.908 6652.76 -377.199 789.799 6353.92 -230.393 732.596 6490.87 -314.336 872.495 6379.8 -0.947852 561.62 7048.57 -279.458 863.938 6385.52 -36.6814 610.087 6953.9 -269.579 843.942 6421.14 -91.6838 679.823 6807.25 -246.835 806.948 6507.89 -152.92 750.452 6645.3 -207.433 858.794 6263.2 -2.65157 546.762 6929.65 -401.311 850.661 6269.21 -52.0871 595.598 6834.91 -385.077 831.057 6304.81 -128.536 665.931 6688.52 -350.056 794.093 6390.93 -214.437 737.197 6527.35 -292.197 868.489 6346.75 -1.48315 558.254 7012.58 -318.644 860.135 6352.63 -41.7113 606.697 6918.21 -306.802 840.37 6388.21 -103.719 676.427 6772.16 -280.213 803.52 6474.48 -172.96 747.063 6611.07 -234.948 863.698 6306.05 -2.09032 553.003 6971.03 -361.124 855.487 6312.03 -47.0912 601.579 6876.64 -347.065 835.849 6347.6 -116.57 671.523 6730.69 -316.195 798.999 6433.65 -194.405 742.391 6569.88 -264.494 890.401 6490.03 0.185499 538.74 7253.65 -4.32069 877.336 6493.27 -0.0497783 591.722 7147.2 -4.92923 851.091 6531.75 -0.935921 667.725 6979.94 -5.0938 807.639 6632.06 -2.53323 744.828 6792.47 -4.20637 877.628 6420.56 -0.26452 563.556 7097.44 -221.049 868.609 6425.9 -29.1087 612.341 7001.77 -213.932 848.017 6461.63 -73.4311 682.497 6853.3 -196.717 810.485 6549.55 -122.571 753.545 6689.04 -165.926 889.667 6489.04 0.296889 543.153 7241.76 -22.967 877.14 6492.5 -2.62388 595.582 7136.68 -23.0991 851.663 6530.62 -7.52792 670.797 6971.78 -22.0018 809.039 6629.38 -13.4123 747.059 6787.2 -18.6928 879.065 6431.4 -0.0889312 563.421 7111.99 -202.557 869.857 6436.6 -26.6956 612.378 7015.85 -196.268 849.011 6472.4 -67.5662 682.768 6866.55 -180.746 811.227 6560.84 -112.826 754.054 6701.26 -152.643 888.304 6485.38 0.415975 549.41 7221.41 -53.7157 876.575 6489.19 -6.83593 601.006 7118.41 -52.9793 852.233 6526.74 -18.2434 675.043 6957.11 -49.6991 810.823 6623.12 -31.1113 750.061 6776.96 -42.331 881.305 6447.35 0.151308 562.517 7135.66 -172.012 871.736 6452.31 -22.6857 611.831 7038.56 -167.03 850.399 6488.3 -57.7626 682.707 6887.56 -154.229 812.125 6577.84 -96.5516 754.481 6720.16 -130.518 886.323 6477.16 0.453025 555.524 7194.64 -92.3114 875.45 6481.38 -12.0669 606.214 7093.94 -90.343 852.31 6518.3 -31.4262 678.986 6936.64 -84.1467 812.173 6612.03 -52.9117 752.687 6761.42 -71.5697 883.88 6463.89 0.35827 560.037 7164.68 -133.562 873.753 6468.51 -17.5922 609.933 7066.03 -130.109 851.65 6504.87 -45.2 681.606 6912.33 -120.588 812.594 6596.2 -75.7203 754.184 6741.57 -102.31 511.25 7306.46 -3.88967 55.2177 8735.54 -4.22491 456.899 7418.84 -3.25545 82.7746 8618.44 -4.77868 374.811 7614.3 -2.95616 131.476 8417.17 -4.98597 283.917 7872.32 -3.46722 199.801 8155.28 -4.41792 538.283 7145.29 -223.61 80.1233 8478.4 -164.55 488.053 7247.9 -227.614 112.542 8369.19 -178.799 411.175 7428.34 -230.619 167.238 8180.62 -198.568 323.839 7668.98 -227.878 239.586 7934.54 -216.726 515.952 7293.93 -22.6903 60.0824 8711.39 -15.2343 462.141 7405.06 -22.2355 88.1935 8595.16 -17.1799 380.75 7598.62 -21.844 137.565 8395.34 -19.4392 290.363 7854.47 -21.5859 206.307 8135.31 -20.9664 538.056 7160.05 -204.77 80.7831 8498.18 -148.238 487.662 7263.09 -208.179 112.866 8388.47 -161.525 410.603 7444.21 -210.555 167.12 8199.13 -179.982 323.206 7685.68 -207.632 239.107 7952.15 -197.008 522.646 7272.62 -53.7386 67.0344 8672.33 -34.5648 469.652 7381.86 -53.6754 95.9845 8557.46 -38.7171 389.314 7572.52 -53.2939 146.369 8359.87 -44.2072 299.699 7825.07 -51.9751 215.738 8102.69 -48.9879 536.962 7184.16 -173.684 80.722 8531.79 -122.299 486.22 7288.07 -176.182 112.241 8421.19 -133.917 408.749 7470.55 -177.648 165.772 8230.46 -150.067 321.137 7713.66 -174.598 237.207 7981.84 -165.042 529.237 7244.8 -92.7883 73.8172 8624.74 -60.8868 477.136 7351.96 -93.3818 103.704 8511.42 -67.6528 397.947 7539.44 -93.2939 155.22 8316.35 -76.9281 309.167 7788.34 -91.0065 225.298 8062.37 -85.4374 534.172 7213.89 -134.615 78.6023 8575.71 -91.5093 482.856 7319.19 -136.106 109.374 8463.87 -100.877 404.67 7503.82 -136.668 161.971 8271.19 -113.867 316.596 7749.44 -133.783 232.751 8020.18 -125.928 63.9432 8520.34 -164.913 -97.4259 9616.88 -6.6368 33.8176 8624.8 -149.001 -99.6358 9535.81 -16.5787 -9.21993 8793.89 -123.198 -96.9084 9395.93 -34.9257 -51.4331 8999.62 -92.0498 -81.9586 9210.01 -61.0218 10.0482 8304.12 -389.418 -187.134 9376.43 -84.7171 -23.8462 8407.42 -363.464 -185.788 9302.26 -109.212 -72.3611 8575.77 -319.888 -177.836 9170.37 -150.957 -120.564 8781.16 -264.425 -157.059 8989.72 -205.174 62.2819 8500.72 -181.427 -102.506 9593.23 -10.1295 31.8186 8604.8 -164.496 -104.346 9512.86 -21.2433 -11.711 8773.43 -136.956 -101.085 9373.86 -41.5169 -54.4705 8978.73 -103.542 -85.5601 9188.64 -70.0071 17.3934 8321.15 -367.47 -176.773 9393.41 -74.7202 -16.1581 8424.28 -342.22 -175.679 9318.82 -97.9151 -64.1713 8592.3 -299.952 -168.116 9186.5 -137.609 -111.83 8797.33 -246.378 -147.807 9005.7 -189.434 58.2674 8468.65 -209.791 -111.918 9555.22 -17.1497 27.2649 8572.2 -191.242 -113.178 9475.99 -30.2361 -17.0483 8740.24 -160.921 -109.08 9338.38 -53.7326 -60.6735 8945 -123.837 -92.652 9154.24 -86.192 28.5112 8350.03 -332.346 -160.782 9423.13 -59.6056 -4.49692 8452.98 -308.319 -160.119 9347.75 -80.6681 -51.718 8620.62 -268.295 -153.209 9214.59 -116.983 -98.5176 8825.21 -217.923 -133.667 9033.41 -164.839 51.0071 8428.99 -247.418 -125.613 9509.46 -28.2532 19.3489 8532.11 -226.951 -126.195 9431.61 -43.8805 -25.9149 8699.68 -193.289 -121.116 9295.62 -71.4953 -70.5837 8904.05 -151.72 -103.622 9112.67 -108.965 40.5868 8387.55 -290.155 -142.638 9463.29 -43.0363 8.23591 8490.46 -267.779 -142.552 9386.79 -61.4492 -38.0311 8657.9 -230.733 -136.498 9252.37 -93.5401 -83.7945 8862.21 -184.527 -117.927 9070.46 -136.385 42.2954 8790.93 -3.82294 -63.7009 9936.67 -0.735794 17.4873 8902.18 -2.90697 -72.0449 9847.38 0.563864 -17.7658 9078.9 -1.30554 -78.1413 9698.03 1.73272 -51.2512 9290.18 0.534343 -72.6355 9505.25 1.7717 64.5419 8529.93 -157.059 -95.1208 9628.55 -5.13706 34.5838 8634.6 -141.654 -97.5158 9547.13 -14.516 -8.20921 8803.95 -116.71 -95.0558 9406.82 -31.934 -50.1502 9009.9 -86.6747 -80.3939 9220.55 -56.8696 46.8549 8766.35 -14.1226 -65.2298 9908.43 1.3275 21.4524 8876.89 -11.7836 -72.9333 9819.71 1.95183 -14.6783 9052.84 -7.97228 -78.0928 9670.94 1.84388 -49.1515 9263.66 -3.61128 -71.5581 9478.5 -0.00654252 65.3813 8549.97 -141.255 -90.7168 9652.86 -2.37685 35.7698 8655.07 -126.915 -93.5054 9570.72 -10.6231 -6.51795 8824.95 -103.763 -91.6107 9429.53 -26.1633 -47.896 9031.38 -76.0322 -77.5534 9242.53 -48.7369 53.3448 8726.64 -32.3241 -68.0252 9862.49 3.72343 27.0436 8836.07 -27.7113 -74.7295 9774.76 3.12855 -10.4099 9010.82 -20.3381 -78.4378 9627.06 0.774882 -46.3709 9220.9 -11.8563 -70.3265 9435.28 -4.30525 65.6241 8584.02 -116.193 -84.3623 9693.94 1.23632 36.5986 8689.89 -103.679 -87.8413 9610.6 -5.21958 -4.836 8860.67 -83.5687 -86.9325 9467.95 -17.7635 -45.2617 9067.86 -59.6883 -73.919 9279.81 -36.5173 59.6121 8678.29 -57.302 -72.2028 9805.98 4.9499 32.3112 8786.45 -49.964 -77.7507 9719.6 2.64195 -6.60809 8959.8 -38.2663 -79.794 9573.41 -2.77301 -44.2159 9168.94 -24.679 -69.8987 9382.66 -12.1033 63.9118 8628.54 -86.5773 -77.7931 9747.16 4.07155 35.6723 8735.46 -76.485 -82.2191 9662.33 -0.284379 -4.61755 8907.43 -60.3463 -82.6594 9517.91 -9.25859 -43.7625 9115.57 -41.3883 -71.0672 9328.43 -23.3625 -58.5054 9979.85 -1.5055 3.1407 11057.8 1.65914 -48.6234 10067.8 -2.55795 -0.28256 10952.7 2.52046 -35.24 10211.4 -2.80394 -5.65697 10787.5 2.56505 -22.6441 10392.5 -1.35144 -12.863 10591.8 0.99958 -93.0018 9667.18 -0.906087 -17.6623 10561 29.2446 -88.5302 9745.28 7.28723 -27.971 10480.1 33.8136 -81.0837 9871.29 19.153 -42.7345 10350.5 37.8969 -70.9001 10026.7 30.5124 -57.8924 10192.6 37.3491 -60.3632 9951.27 0.856866 3.24655 11013.8 1.39464 -51.0597 10038.4 0.304667 -1.03558 10910.8 3.08071 -38.3085 10180.7 0.543392 -7.57044 10748.6 4.2923 -25.9484 10359.6 2.0391 -15.7536 10556 3.8007 -88.3945 9691.9 1.30771 -13.8749 10600.9 24.4522 -83.5698 9770.85 8.43971 -23.7865 10518 29.1876 -75.749 9898.33 18.75 -37.9903 10385.4 33.7099 -65.4328 10055.8 28.4968 -52.6498 10224.5 34.0193 -63.6731 9904.73 3.80275 2.70917 10941.3 2.08504 -55.2763 9990.59 4.20222 -2.85573 10841.7 4.9197 -43.5221 10130.4 5.47686 -11.1239 10684.5 7.71357 -31.5546 10305.7 7.38398 -20.7616 10497.4 8.58133 -81.682 9733.65 4.06207 -8.473 10668.4 17.4369 -76.2318 9814.03 9.54187 -17.6835 10582.1 22.2612 -67.7342 9944.02 17.4797 -30.9117 10444.5 27.2063 -57.15 10105 24.8562 -44.7225 10278.3 28.567 -68.4486 9847.43 5.81787 0.704997 10850.9 4.91956 -61.107 9931.56 7.63231 -6.25306 10755.6 8.82347 -50.5202 10068.2 10.6208 -16.4063 10604.8 13.0004 -39.0396 10238.9 13.6418 -27.6218 10424.5 14.849 -74.6208 9787.72 5.89942 -3.17165 10755.5 10.3115 -68.3058 9869.92 9.4898 -11.3861 10664.8 14.9046 -58.8567 10003.1 14.8087 -23.2474 10520.9 19.8248 -47.8673 10168.8 19.7449 -35.896 10347.9 21.837 3036.09 17202.6 -415.534 3105.11 17653.2 -10.6099 3050.2 17260.8 -386.679 3105.61 17633.2 -48.9801 3069.49 17348.6 -335.818 3104.53 17593.1 -111.594 3087.23 17444.5 -266.95 3099.1 17529.6 -188.341 2544.63 20107.7 -1039.01 2479.72 20641.1 -22.8094 2537.8 20188.6 -960.62 2480 20626.3 -114.178 2525.49 20306.2 -826 2484.11 20591.1 -264.838 2509.64 20427.4 -649.066 2494.42 20525.9 -452.534 2997.58 17424.2 -462.903 3055.57 17886 -11.2264 3010.25 17484.6 -430.364 3056.38 17866.1 -53.7579 3027.31 17575.5 -373.221 3056.12 17825.9 -123.23 3042.56 17674.3 -296.167 3052.23 17761.4 -208.542 2540.78 19794.8 -984.411 2481.84 20322.3 -21.446 2535.59 19873.8 -910.374 2482.98 20307 -108.274 2525.63 19989.2 -783.098 2487.88 20271.3 -251.334 2511.99 20108.4 -615.621 2498.1 20206 -429.385 2916.68 17789.6 -545.359 2954.03 18267.3 -12.2156 2926.66 17853.6 -506.336 2955.44 18247.8 -61.9455 2939.56 17949.3 -438.171 2956.74 18207.8 -143.302 2950.17 18052.5 -346.813 2955.74 18142.3 -243.483 2572.87 19320.5 -893.323 2527.72 19838.9 -18.9937 2570.61 19396.6 -826.553 2529.84 19822.7 -98.2587 2564.97 19508.2 -711.528 2535.34 19786 -228.675 2555.6 19624.4 -559.803 2544.61 19720.6 -390.692 2794.98 18256.6 -655.271 2803.73 18750.1 -13.7459 2801.12 18324.8 -607.517 2805.88 18731.6 -72.9572 2808.14 18426.1 -524.567 2809.21 18692.3 -170.006 2812.24 18534.1 -414.103 2812.12 18626.5 -289.889 2664.43 18783.1 -777.762 2642.98 19290.1 -16.1092 2666.2 18855.5 -720.225 2645.51 19272.8 -85.7144 2666.55 18962.3 -620.762 2650.53 19234.8 -200.027 2663.44 19074.6 -489.038 2657.28 19169.1 -341.669 2636.92 18963 -1862.32 2554.35 20224.9 -1103.97 2635.19 19091.9 -1812.27 2562.17 20135.6 -1181.27 2628.47 19295.6 -1722.66 2576.57 19981.5 -1304.87 2614.64 19536 -1598.36 2595.64 19774.8 -1452.17 1410 24994.1 -4624.65 722.62 26642.6 -2498.82 1337.85 25173.9 -4459.82 765.727 26542.2 -2692.99 1223.16 25455.9 -4179.11 844.195 26359.2 -3010.96 1087.74 25783.4 -3812.04 955.098 26098.8 -3403.68 2632.82 19254.8 -1979.11 2520.67 20553.1 -1168.03 2628.01 19387.9 -1925.18 2530.28 20461.6 -1250.32 2616.34 19598 -1828.87 2548.01 20303.6 -1382.05 2596.63 19845.8 -1695.63 2571.87 20091.4 -1539.28 1390.96 24012.4 -4263.13 792.652 25646.6 -2317.69 1329.05 24189.5 -4113.66 830.286 25544.6 -2496.52 1230.04 24467.2 -3858.36 899.03 25360.6 -2788.98 1112.3 24789.8 -3523.37 996.291 25101.5 -3149.49 2496.63 19748.9 -2223.98 2332.01 21113 -1296.22 2485.93 19889.7 -2160.81 2344.66 21017.9 -1388.93 2465.1 20111.8 -2048.83 2368.02 20853.1 -1537.84 2434.85 20372.9 -1895.25 2400.04 20630.9 -1716.46 1491.23 22688.5 -3726.12 1018.42 24287 -2049.33 1443.92 22859.8 -3599.56 1048.54 24183.8 -2205.43 1367.23 23128.6 -3382.22 1103.82 24000.3 -2460.06 1274.57 23441.4 -3095.11 1182.02 23745.2 -2772.65 2175.88 20456.8 -2618.65 1933.85 21906.5 -1496.29 2156.04 20608.1 -2539.3 1950.83 21807.3 -1605.7 2121.21 20846.2 -2400.29 1982.18 21634.3 -1782.37 2075.24 21125.2 -2212.21 2025.85 21399.6 -1996.04 1780.6 21436.6 -3142.24 1433.87 22971.3 -1758.1 1748.22 21598.9 -3040.68 1456.71 22869 -1889.58 1694.28 21853.8 -2864.74 1498.8 22689.1 -2103.1 1627.05 22151.4 -2629.92 1558.06 22442.4 -2363.53 2731.04 16315.6 -676.317 3028.57 17173 -429.014 2767.13 16399.8 -661.837 3012.11 17110.5 -456.021 2821.85 16534.5 -634.869 2981.92 17002.9 -498.56 2882.44 16696.3 -595.819 2937.95 16859.6 -548.113 2616.13 18820.5 -1813.62 2547.75 20065.9 -1076.22 2615.83 18947.5 -1764.99 2554.69 19977.6 -1151.44 2611.41 19148.4 -1677.91 2567.46 19825.3 -1271.68 2600.38 19385.5 -1557.08 2584.18 19621.2 -1414.93 2716.85 16500.4 -760.436 2990.78 17393.4 -478.137 2750.7 16588.3 -743.591 2975.9 17328.4 -508.688 2801.71 16728.9 -712.425 2948.58 17216.5 -556.882 2857.75 16897.4 -667.608 2908.61 17067.5 -613.177 2580.94 18541.7 -1714.17 2543.06 19753.9 -1019.53 2583.68 18664.9 -1668.46 2548.11 19667.7 -1090.5 2584.23 18859.9 -1586.54 2557.35 19519 -1203.88 2579.22 19090.5 -1472.79 2569.03 19320 -1338.89 2682.07 16806.5 -908.828 2911.24 17756.9 -563.688 2711.57 16900.5 -887.651 2899.32 17687.9 -600.501 2755.48 17050.6 -848.836 2877.37 17569.2 -658.734 2802.83 17230.2 -793.585 2844.91 17411 -727.069 2557.4 18122.5 -1547.33 2573.62 19281.3 -924.956 2565.59 18239.6 -1506.63 2575.31 19198.4 -988.819 2574.97 18425.3 -1433.53 2578.3 19055.7 -1090.72 2580.62 18645.4 -1331.82 2581.05 18864.9 -1211.87 2627.25 17201.6 -1109.35 2791.46 18221.7 -677.779 2650.32 17303.2 -1082.11 2783.76 18148 -723.073 2683.78 17465.1 -1032.63 2769.51 18021 -794.96 2718.47 17658 -962.923 2747.85 17851.8 -879.768 2575.07 17653.6 -1334.65 2663.13 18745.9 -804.961 2590.51 17763.3 -1300.47 2660.3 18667.4 -859.797 2611.61 17937.5 -1238.82 2654.96 18532.2 -947.102 2631.38 18144.5 -1152.64 2645.87 18351.6 -1050.58 -1611.52 9011.68 -2335.44 -1497.86 10192.9 -1852.11 -1605.05 9122.56 -2298.07 -1510.08 10104.3 -1896.54 -1592.73 9302.85 -2234.36 -1529.52 9951.86 -1969.03 -1574.61 9523.41 -2151.02 -1552.42 9750.28 -2058.29 -1304.61 7789.38 -2800.58 -1070.2 9470.65 -2522.73 -1288 7941.64 -2786.54 -1093.55 9337.55 -2555.7 -1259.09 8190.72 -2759.22 -1130.83 9112.46 -2606.65 -1220.16 8498.77 -2717.59 -1175.39 8820.71 -2664.27 -1587.8 8933.05 -2361.08 -1473.17 10125.9 -1892.75 -1580.94 9045.59 -2325.06 -1484.97 10037.3 -1935.83 -1568.01 9228.51 -2263.49 -1503.98 9884.4 -2006.16 -1549.3 9452.02 -2182.76 -1526.78 9681.36 -2092.81 -1345.48 7820.01 -2733.26 -1126.51 9425.62 -2438.88 -1330 7966.97 -2717.05 -1148.04 9300.57 -2472.32 -1302.89 8207.01 -2686.35 -1182.61 9088.02 -2524.49 -1266.28 8502.96 -2640.98 -1224.24 8810.77 -2584.38 -1552.41 8755.45 -2402.46 -1431.45 9977.25 -1961.6 -1544.67 8871.39 -2369.07 -1443.2 9887.59 -2002.48 -1530.31 9059.78 -2311.69 -1462.46 9732.23 -2069.16 -1509.97 9289.66 -2235.97 -1486.07 9524.87 -2151.15 -1403.04 7934.45 -2636.32 -1209.59 9428.07 -2313.49 -1389.4 8073.27 -2616.42 -1228.18 9314.6 -2347.86 -1365.31 8299.51 -2580.03 -1258.36 9120.19 -2402.27 -1332.6 8577.26 -2528.33 -1295.13 8864.14 -2466.14 -1510.32 8476.53 -2459.91 -1373.11 9757.55 -2057.03 -1501.02 8598.21 -2430.5 -1385.96 9663.81 -2095.32 -1484.12 8795.94 -2379.37 -1407.2 9501.23 -2157.48 -1460.64 9037.2 -2310.97 -1433.55 9283.93 -2233.33 -1460.74 8168.18 -2538.69 -1297.32 9544.25 -2177.89 -1449.33 8297.9 -2514.1 -1312.65 9442.23 -2213.86 -1428.93 8508.92 -2470.46 -1337.86 9266.04 -2271.66 -1400.99 8766.96 -2410.63 -1368.99 9031.76 -2341.06 -1490.25 5836.59 -2829.37 -1289.8 7705.34 -2839.92 -1473.03 5996.99 -2841.42 -1306.57 7548.91 -2849.96 -1444.46 6262.98 -2856.74 -1334.52 7288.02 -2862.19 -1408.46 6598.22 -2867.87 -1370.06 6956.32 -2869.73 -19.6898 733.333 -709.314 1705.17 2254.7 -2091.04 137.764 839.266 -819.089 1570.48 2100.92 -1967.11 395.013 1024.25 -1004.91 1341.57 1856.12 -1763.63 712.499 1274.77 -1245.71 1043.23 1565.03 -1510.88 -1433.57 5704.35 -2829.72 -1210.3 7600.81 -2883.51 -1414.02 5866.22 -2845.52 -1228.62 7441.07 -2889.95 -1381.75 6134.97 -2867.04 -1259.31 7175.1 -2896.19 -1341.37 6474.34 -2885.95 -1298.6 6837.69 -2896.09 -84.5261 1417.87 -1035.59 1365.43 2948.25 -2234.35 49.5449 1528.38 -1133.01 1254 2797.89 -2129.09 267.978 1719.54 -1296.98 1063.79 2556.89 -1955.36 536.394 1975.19 -1507.82 814.473 2267.44 -1737.93 -1268.15 5311.01 -2727.34 -977.377 7190.88 -2887.25 -1241.55 5469.42 -2751.38 -1000.06 7030.37 -2884.04 -1198.1 5733.21 -2786.96 -1038.58 6764.05 -2874.46 -1144.52 6067.76 -2824.25 -1088.79 6427.84 -2854.79 -271.511 2438.17 -1513.35 799.118 4012.44 -2435.57 -170.709 2557.62 -1591.75 718.733 3864.01 -2358.11 -7.11384 2761.67 -1722.24 580.637 3623.75 -2228.83 192.703 3029.94 -1887.42 398.095 3330.92 -2064.5 -966.904 4573.06 -2452.25 -523.693 6364.12 -2803.13 -924.856 4720.57 -2490.27 -556.66 6207.6 -2781.74 -856.719 4967.54 -2550.1 -613.421 5949.43 -2742.68 -773.715 5283.23 -2619.79 -688.696 5626.17 -2687.08 -593.706 3559.41 -2021.1 115.207 5228.7 -2639.88 -526.04 3692.12 -2078.22 62.94 5077.79 -2592.43 -416.537 3916.23 -2171.43 -27.3039 4830.96 -2511.34 -283.401 4206.18 -2286.09 -147.375 4525.62 -2404.9 -1653.84 7492.27 -2686.46 -1614.39 8957.31 -2353.26 -1653.3 7626.13 -2665.71 -1620.03 8843.56 -2389.03 -1651.01 7845.11 -2628.09 -1628.61 8649.86 -2445.36 -1645.88 8115.46 -2574.97 -1637.95 8396.74 -2511.14 -1505.32 5871.46 -2811.86 -1312.46 7715 -2806.71 -1488.82 6030.04 -2822.38 -1328.64 7561.06 -2817.9 -1461.41 6292.89 -2835.26 -1355.6 7304.17 -2832.13 -1426.82 6623.95 -2843.43 -1389.85 6977.24 -2842.3 -1638.13 7396.74 -2693.29 -1590.86 8877.88 -2378.24 -1636.65 7531.79 -2674.21 -1596.92 8762.5 -2412.6 -1632.92 7752.8 -2639.33 -1606.29 8566.25 -2466.55 -1626.19 8025.82 -2589.57 -1616.79 8310.13 -2529.21 -1530.31 5956.41 -2777.4 -1352.77 7748.16 -2740.49 -1515.28 6111.27 -2784.79 -1367.78 7599.36 -2753.99 -1490.22 6367.69 -2792.66 -1392.75 7350.67 -2772.2 -1458.46 6690.14 -2794.85 -1424.41 7033.56 -2787.67 -1618.76 7187.28 -2697.69 -1555.91 8698.62 -2418.3 -1615.51 7324.28 -2681.9 -1562.9 8579.94 -2449.91 -1609.04 7548.73 -2652.38 -1573.96 8378.55 -2499.16 -1599.19 7826.52 -2609.2 -1586.85 8116.52 -2555.68 -1560.99 6152.59 -2735.77 -1409.41 7866.53 -2645.4 -1548.51 6302.06 -2737.92 -1422.5 7725.64 -2662.8 -1527.51 6549.07 -2737.41 -1444.18 7489.53 -2687.73 -1500.62 6858.76 -2729.52 -1471.49 7187.35 -2712.15 -1602.06 6856.69 -2698.67 -1514.57 8416.91 -2473.76 -1596.15 6996.54 -2687.95 -1523.17 8292.67 -2501.19 -1585.52 7226.22 -2666.66 -1537.06 8082.67 -2543.32 -1570.86 7511.55 -2633.59 -1553.87 7810.82 -2590.5 -1585.21 6474.13 -2707.61 -1466.02 8104.65 -2550.12 -1576 6618.19 -2703.27 -1476.8 7972.6 -2572.48 -1560.19 6855.56 -2692.32 -1494.48 7750.42 -2605.93 -1539.44 7151.87 -2671.83 -1516.44 7464.54 -2641.65 391.608 13043.1 -968.307 1279.51 14056.8 -856.664 465.819 13126 -954.826 1204.96 13967.8 -863.15 590.37 13265.2 -934.455 1080.03 13821.1 -874.757 749.388 13443.5 -911.955 920.793 13637.7 -891.301 1353.36 13685 -2191.52 2055.67 15266.9 -2276.9 1421.41 13812.1 -2198.88 2005.05 15124.5 -2271.86 1531.26 14025.8 -2211.85 1917.1 14891.6 -2261.78 1664.2 14301.1 -2228.86 1799.07 14603.3 -2246.71 437.09 13083.3 -1063.65 1314.61 14138.8 -960.875 510.698 13169.5 -1051.1 1241.24 14045.8 -966.841 634.144 13314 -1032.23 1118.15 13892.8 -977.466 791.57 13499.4 -1011.5 961.005 13701.6 -992.582 1253.83 13595.3 -2106.69 1954.93 15117.2 -2162.73 1320.54 13717.9 -2111.19 1903.38 14980.6 -2159.66 1428.75 13924 -2119.51 1814.21 14757 -2153.11 1560.57 14189.2 -2130.84 1695.35 14480 -2142.96 532.843 13148.3 -1236.34 1383.58 14274.5 -1149.18 604.845 13239.9 -1225.52 1313.13 14174.9 -1154.31 725.343 13393.8 -1209.38 1194.63 14011.1 -1163.32 878.543 13591.3 -1191.86 1042.83 13806.9 -1175.99 1088.55 13468.6 -1949.71 1803.31 14898.5 -1963.27 1154.44 13584.1 -1949.93 1748.96 14770.6 -1962.91 1262.23 13778.2 -1951.33 1655.68 14561.2 -1961.3 1395.08 14027.9 -1954.33 1532.71 14301.2 -1958.15 687.249 13233.8 -1471.46 1492.22 14452.5 -1408.02 756.638 13332.6 -1463.35 1426.76 14344.3 -1411.96 872.21 13498.8 -1451.47 1316.17 14166.6 -1418.59 1018.2 13712.2 -1438.86 1173.61 13945.4 -1427.63 885.561 13341.2 -1726.95 1638.16 14665.1 -1697.65 952.428 13448.4 -1722.64 1578.75 14547.2 -1699.79 1062.9 13628.6 -1716.77 1477.67 14353.8 -1702.9 1200.91 13860.1 -1711.18 1346.07 14113.3 -1706.62 483.619 12238.9 -2181.37 1367.38 13668.3 -2228.42 559.672 12354.7 -2179.43 1296.33 13540.8 -2220.23 686.655 12549.1 -2179.27 1175.47 13331.7 -2207.64 847.451 12798.8 -2183.98 1018.75 13072 -2194.22 4466.89 11028.7 -6547.3 4234.78 14743.6 -7244.27 4468.54 11337.2 -6629.23 4274.79 14421.8 -7209.42 4462.21 11852.7 -6756.49 4333.45 13889.9 -7140.84 4438.24 12510 -6901.23 4393.07 13221.6 -7035.77 582.629 12239.8 -2287.76 1464.94 13726.7 -2363.87 659.027 12359.7 -2288.2 1394.46 13593.3 -2353.2 786.378 12561 -2292.05 1274.37 13375 -2336.46 947.287 12820.1 -2301.93 1118.29 13104.3 -2317.79 3817.86 10994.9 -5967.02 3693 14362.1 -6573.28 3825.44 11272.7 -6037.18 3720.93 14068.5 -6542.01 3830.35 11737.7 -6146.55 3760.67 13584 -6481.11 3822.97 12331.8 -6271.66 3798.47 12976.8 -6388.8 838.551 12108.8 -2614.64 1637.95 13742 -2743.55 909.054 12239.6 -2620.93 1575.25 13594.8 -2729.75 1026 12459.8 -2633.94 1467.95 13354 -2707.28 1172.78 12743.9 -2654.39 1327.63 13056 -2680.36 2917.23 11088.2 -5090.58 2984.37 13950.1 -5562.34 2936.45 11321.8 -5143.02 2991.84 13697.9 -5536.17 2962.77 11713.8 -5225.58 2999.07 13282.8 -5486.39 2986.05 12216.5 -5321.38 2998.66 12764.5 -5412.76 1316.77 11787.6 -3242.55 1915.09 13701.7 -3454.69 1372.53 11940.8 -3259.79 1870.9 13529.4 -3437.6 1463.72 12199 -3289.37 1794.13 13247.4 -3408.16 1575.94 12532.1 -3327.89 1691.66 12898.2 -3369.7 2029.47 11384 -4118.58 2356.05 13724.6 -4448.91 2065.93 11572.8 -4151.98 2337.61 13515.8 -4427.78 2123.15 11890.6 -4205.84 2302.99 13173.2 -4389.22 2189.3 12299.5 -4270.53 2252.21 12747.4 -4334.88 -454.414 12058.9 -1188.15 355.879 13003.1 -975.177 -392.244 12136.8 -1165.91 282.481 12920.9 -989.75 -285.479 12267.3 -1130.92 161.674 12785.1 -1015.14 -144.947 12434 -1089.92 11.6182 12614.9 -1049.62 449.881 12215.1 -2155.03 1319.88 13623.9 -2188.12 524.569 12329.5 -2152.2 1249.74 13498.6 -2181.34 649.349 12521.5 -2150.41 1130.53 13292.9 -2171.04 807.485 12767.8 -2152.84 976.107 13037.2 -2160.37 -405.158 12064.4 -1270.77 401.638 13041.8 -1070.06 -343.068 12145 -1249.62 328.775 12956.5 -1083.66 -236.517 12279.8 -1216.43 208.751 12815.7 -1107.41 -96.4075 12452.1 -1177.69 59.504 12639.3 -1139.74 378.231 12169.2 -2099.98 1221.08 13536.3 -2104.68 450.105 12280.7 -2095.3 1152.61 13415.3 -2100.75 570.381 12467.6 -2090.18 1036.49 13216.4 -2095.05 723.151 12707.2 -2087.92 886.482 12968.7 -2089.93 -300.506 12068.2 -1419.15 498.123 13104.2 -1241.89 -238.443 12153.4 -1400.11 426.664 13013.6 -1253.68 -132.194 12296 -1370.4 308.665 12864 -1274.33 7.06062 12478.4 -1335.99 161.441 12676.9 -1302.58 245.663 12115.7 -1990.3 1056.36 13412.9 -1949.8 313.669 12221.9 -1982.47 989.26 13298.7 -1950.17 427.921 12399.9 -1971.75 876.088 13110.7 -1951.53 573.841 12627.8 -1961.85 730.865 12876 -1955.05 -135.913 12069.8 -1616.56 653.697 13186.1 -1475.67 -73.2728 12161.4 -1600.74 584.435 13088.3 -1484.63 33.4124 12315 -1576.36 469.458 12927 -1500.41 172.262 12511.5 -1548.65 324.979 12725.2 -1522.29 62.1825 12081 -1822.08 853.077 13289.6 -1729.27 126.771 12180.2 -1810.26 785.705 13183.5 -1734.28 235.99 12346.3 -1792.64 672.977 13008.8 -1743.36 376.747 12558.9 -1773.59 529.823 12790.3 -1756.59 -484.633 10966.4 564.193 25.7086 11126.5 796.474 -449.001 10984 587.382 -23.999 11117.4 780.31 -386.133 11011.7 624.501 -104.444 11100.2 751.954 -300.561 11044 668.926 -201.924 11075 713.457 -462.392 11314.1 482.854 161.853 11536.3 737.961 -417.257 11336.8 508.619 102.419 11521.8 720.431 -338.495 11373.2 549.728 5.79583 11495.7 689.594 -232.662 11416.5 598.71 -112.139 11459.4 647.563 -484.659 10992.5 559.352 34.9443 11156.9 793.848 -448.264 11010.4 582.788 -15.5746 11147.4 777.55 -384.12 11038.8 620.291 -97.3564 11129.6 748.951 -296.917 11071.9 665.157 -196.508 11103.7 710.109 -466.075 11280.7 491.822 147.796 11496.3 745.366 -421.811 11302.9 517.402 89.2322 11482.4 727.922 -344.506 11338.3 558.226 -5.93308 11457.2 697.245 -240.531 11380.5 606.89 -122.01 11422.1 655.448 -483.869 11037 550.456 51.1826 11208.9 788.551 -446.196 11055.6 574.293 -0.679349 11198.7 772.034 -379.914 11085 612.418 -84.6799 11179.9 743.038 -289.982 11119.4 658 -186.615 11152.6 703.634 -471.502 11226.9 505.869 125.549 11432.3 756.62 -428.648 11248.3 531.125 68.3997 11419.3 739.336 -353.705 11282.4 571.451 -24.3982 11395.6 708.954 -252.74 11322.7 619.551 -137.461 11362.4 667.582 -481.429 11095.8 537.693 73.3647 11277.6 780.167 -442.112 11115.2 562.016 19.8033 11266.6 763.382 -373.084 11146 600.899 -67.0148 11246.3 733.903 -279.653 11182.2 647.35 -172.499 11217.3 693.815 -477.086 11162 522.12 99.3035 11355.4 769.033 -435.964 11182.4 546.941 43.9013 11343.5 751.978 -363.918 11214.9 586.594 -45.9801 11321.6 722.011 -266.643 11253.1 633.927 -155.34 11290.4 681.232 -899.436 10992.4 140.973 -481.938 11319.2 465.557 -872.749 11023.6 169.484 -525.225 11295.1 438.985 -824.455 11074.1 216.462 -594.249 11253.5 394.425 -756.664 11135.4 275.181 -676.085 11198.2 337.342 -945.4 11344.8 -68.184 -397.705 11771.7 283.825 -908.322 11384 -36.5421 -452.459 11738.7 255.649 -842.403 11448.1 15.2757 -540.461 11682.5 208.157 -751.755 11527 79.5023 -646.074 11608.9 146.858 -905.199 11020.1 127.97 -477.995 11353.4 455.477 -877.747 11051.8 156.797 -522.158 11328.8 428.715 -828.156 11103.2 204.267 -592.619 11286.3 383.819 -758.678 11165.7 263.557 -676.236 11229.7 326.27 -942.756 11312.4 -45.7933 -408.005 11728.3 304.696 -906.717 11350.8 -14.3523 -461.636 11696.3 276.581 -842.561 11413.4 37.1627 -547.768 11641.7 229.216 -754.199 11490.3 101.06 -651.022 11570.1 168.127 -913.792 11066.9 104.365 -470.1 11411.7 436.556 -885.035 11099.6 133.7 -515.74 11386.1 409.493 -833.23 11152.5 181.964 -588.629 11341.9 364.062 -760.878 11217.1 242.172 -675.267 11283.3 305.771 -938.095 11259.8 -10.4615 -423.841 11658.6 337.08 -903.7 11296.8 20.6126 -475.69 11628.1 309.106 -842.335 11357.1 71.569 -558.856 11576.1 262.017 -757.59 11431.1 134.848 -658.375 11507.6 201.355 -923.101 11127.7 70.988 -457.744 11488.2 408.736 -892.619 11161.6 100.935 -505.307 11461.2 381.324 -837.892 11216.8 150.152 -581.368 11414.8 335.271 -761.748 11284.1 211.455 -671.967 11353.3 276.107 -931.472 11195 30.8611 -441.577 11574.3 374.012 -899.03 11230.5 61.4186 -491.298 11545.6 346.278 -840.976 11288.1 111.581 -570.932 11496.4 299.638 -760.522 11358.7 173.964 -666.01 11431.5 239.639 -811.697 10698.3 267.128 -501.291 10957.6 552.741 -792.94 10723.6 291.814 -534.726 10939 528.997 -758.448 10764.3 332.664 -587.539 10906.7 489.32 -709.092 10813.4 384.025 -649.302 10863.2 438.751 -896.484 10979.2 146.963 -483.637 11302.8 470.105 -870.162 11010.1 175.319 -526.502 11279 443.628 -822.488 11060.1 222.054 -594.836 11237.9 399.235 -755.504 11120.9 280.493 -675.818 11183.1 342.381 -820.426 10719.4 258.907 -501.686 10983.5 547.775 -801.073 10745.1 283.884 -535.884 10964.5 523.772 -765.524 10786.5 325.212 -589.963 10931.5 483.656 -714.732 10836.5 377.167 -653.305 10887.2 432.518 -890.318 10952.3 159.043 -486.901 11269.6 479.167 -864.729 10982.7 187.077 -528.908 11246.4 452.89 -818.305 11031.8 233.31 -595.836 11206.1 408.85 -752.953 11091.5 291.162 -675.079 11152.4 352.479 -834.115 10755.4 244.397 -501.514 11027.8 538.678 -813.769 10781.9 269.869 -536.987 11008.2 514.254 -776.464 10824.5 312.006 -593.178 10974 473.422 -723.287 10876 364.96 -659.146 10928.3 421.349 -879.853 10909 178.377 -491.647 11216.3 493.378 -855.427 10938.5 205.877 -532.26 11193.9 467.449 -810.997 10986.2 251.267 -596.904 11155 424.017 -748.269 11044.1 308.132 -673.325 11103.1 368.477 -850.145 10803 224.561 -499.867 11086.1 525.67 -828.524 10830.4 250.678 -536.974 11065.6 500.732 -788.973 10874.6 293.861 -595.862 11030.1 459.019 -732.761 10928.1 348.088 -665.171 10982.4 405.784 -866.022 10856.6 201.483 -496.396 11151.9 509.848 -842.985 10885 228.311 -535.295 11130.4 484.384 -800.959 10931 272.634 -597.127 11093.2 441.761 -741.426 10986.7 328.231 -670.076 11043.4 387.312 1989.47 11120.6 454.163 2202.14 11120 9.34594 2020.98 11118.1 419.138 2197.76 11117.7 49.8743 2067.85 11115 359.831 2184.75 11114.8 116.044 2117.32 11112.9 282.828 2158.19 11112.9 197.689 2377.11 11743 426.659 2606.59 11781.5 7.57057 2411.37 11745.1 393.531 2602.48 11777.4 45.7139 2462.39 11749.3 337.527 2589.07 11770.7 107.973 2516.29 11755.4 264.942 2560.65 11762.9 184.791 2021.8 11164.3 453.199 2236.16 11166.2 9.43972 2053.64 11162.1 418.219 2231.96 11163.8 49.8373 2101.03 11159.5 359.006 2219.06 11160.7 115.806 2151.07 11158 282.158 2192.36 11158.4 197.225 2342.81 11678.8 430.59 2571.08 11712.9 7.79447 2376.92 11680.5 397.185 2567.11 11709 46.2796 2427.75 11683.8 340.703 2553.89 11702.9 109.099 2481.46 11689 267.48 2525.65 11695.7 186.611 2075.45 11239.9 451.11 2292.49 11246.1 9.43381 2107.8 11238.2 416.252 2288.52 11243.6 49.6083 2155.99 11236.4 357.27 2275.75 11240.2 115.223 2206.89 11235.9 280.755 2248.82 11237.2 196.225 2286.73 11577.8 436.367 2512.92 11605.1 8.20702 2320.57 11578.6 402.55 2509.12 11601.6 47.1742 2371.02 11580.8 345.359 2496.14 11596.1 110.791 2424.35 11584.6 271.203 2468.19 11590 189.295 2143.46 11341.5 447.535 2363.69 11353.8 9.19204 2176.38 11340.6 412.918 2359.91 11351 49.0536 2225.44 11339.9 354.358 2347.2 11347 114.156 2277.3 11340.6 278.412 2319.96 11343.2 194.53 2217.09 11459.1 442.429 2440.51 11478.7 8.7305 2250.53 11459 408.176 2436.79 11475.6 48.1834 2300.39 11459.7 350.239 2424.01 11470.9 112.607 2353.08 11462 275.109 2396.41 11465.9 192.128 1799.42 11745 738.45 2376.31 11774 440.429 1858.24 11747.1 719.59 2338.3 11771.6 472.187 1952.31 11751 685.599 2270.2 11767.6 522.264 2064.42 11756.2 637.895 2175.66 11762.1 580.853 2187.96 12616.9 584.684 2780.62 12776.6 341.196 2249.48 12631.5 568.824 2742.3 12764.5 366.735 2347.35 12655.5 540.504 2673.38 12743.6 407.122 2463.16 12685.2 501.181 2577.18 12716 454.608 1830.51 11804.6 731.179 2410.65 11841.6 435.662 1889.72 11807.5 712.443 2372.49 11838.7 467.122 1984.4 11812.6 678.697 2304.08 11833.6 516.737 2097.2 11819.3 631.366 2209.06 11826.8 574.805 2151.63 12524.7 604.273 2744.76 12669.4 353.808 2213.07 12537.9 588.027 2706.34 12658.4 380.141 2310.88 12559.5 558.98 2637.26 12639.4 421.765 2426.72 12586.4 518.582 2540.87 12614.4 470.669 1882.42 11908.3 716.972 2467.13 11959.5 426.416 1942.22 11912.5 698.496 2428.77 11955.6 457.296 2037.78 11919.8 665.25 2359.95 11948.6 506.014 2151.55 11929.2 618.671 2264.29 11939.4 563.061 2093.26 12380.7 633.797 2686.46 12502.3 372.806 2154.51 12391.6 616.965 2647.93 12493 400.332 2252.12 12409.7 586.814 2578.67 12477 443.817 2367.88 12432.3 544.793 2482.11 12455.9 494.858 1949 12048.8 695.004 2538.06 12120 412.21 2009.41 12054.9 676.953 2499.54 12114.5 442.202 2105.87 12065.2 644.511 2430.38 12105 489.537 2220.6 12078.4 599.122 2334.14 12092.4 545.002 2022.36 12213 666.1 2614.36 12308.7 393.588 2083.27 12221.5 648.622 2575.78 12301.4 422.416 2180.45 12235.6 617.259 2506.47 12288.7 467.934 2295.86 12253.3 573.458 2409.92 12271.9 521.312 1445.02 11160.6 784.06 1973.31 11122 470.931 1498.24 11156.3 764.527 1938.31 11124.9 504.583 1583.75 11149.9 729.169 1875.54 11129.5 557.554 1686.25 11142.6 679.288 1788.44 11135.6 619.354 1784.39 11716.8 741.649 2359.57 11742 442.536 1843.01 11718.6 722.736 2321.65 11740 474.427 1936.76 11721.9 688.642 2253.71 11736.4 524.708 2048.51 11726.4 640.777 2159.43 11731.6 583.526 1472.68 11200.3 782.778 2005.47 11165.6 469.949 1526.39 11196.4 763.261 1970.15 11168.1 503.565 1612.66 11190.5 727.933 1906.83 11172.3 556.481 1716 11183.9 678.097 1819.02 11177.7 618.219 1753.74 11660.3 747.818 2325.34 11678.1 446.598 1811.93 11661.4 728.807 2287.6 11676.6 478.747 1905.02 11663.5 694.515 2220.01 11674 529.425 2016.03 11666.7 646.342 2126.26 11670.4 588.686 1518.85 11268.7 779.777 2058.88 11240.9 467.805 1573.37 11265.4 760.299 2023.04 11242.9 501.313 1660.86 11260.6 725.048 1958.86 11246.1 554.063 1765.59 11255.3 675.334 1869.93 11250.4 615.62 1703.86 11571 756.901 2269.41 11577.5 452.569 1761.33 11571 737.748 2231.98 11576.9 485.105 1853.31 11571.4 703.171 2165 11575.7 536.374 1963.08 11572.5 654.546 2072.16 11574.1 596.294 1577.87 11360.1 774.363 2126.61 11342.1 464.117 1633.38 11357.8 754.957 2090.19 11343.4 497.403 1722.38 11354.5 719.857 2025.02 11345.3 549.817 1828.79 11351 670.387 1934.73 11347.9 611.002 1642.35 11465.4 766.421 2199.98 11459.3 458.839 1698.89 11464.2 747.128 2163.01 11459.6 491.785 1789.45 11462.7 712.26 2096.86 11460 543.68 1897.62 11461.4 663.168 2005.22 11460.6 604.293 -1897.19 2289.13 -2041.06 -1730.18 3850.84 -2537.44 -1878.84 2411.79 -2092.64 -1739.24 3708.21 -2504.43 -1849.66 2619.78 -2174.25 -1756.71 3475.64 -2445.87 -1815.5 2890.06 -2270.42 -1782.86 3188.94 -2365.22 -2901.79 972.609 -1282.07 -2273.42 2193.69 -1903.59 -2844.96 1062.45 -1335.85 -2322.73 2072.17 -1850.42 -2751.72 1215.88 -1424.19 -2406.46 1879.25 -1762.78 -2636.17 1418.76 -1534.7 -2515.48 1649.67 -1652.69 -1959.82 2195.92 -1991.84 -1759.11 3743.27 -2500.25 -1938.44 2317.04 -2044 -1770.93 3601.23 -2465.7 -1904.32 2522.49 -2126.72 -1792.99 3370.03 -2404.83 -1864.06 2789.7 -2224.61 -1825.01 3085.62 -2321.66 -2787.18 1077.79 -1346.49 -2211.57 2321.41 -1955.29 -2734.24 1170.21 -1400.24 -2255.8 2198.99 -1904.37 -2647.69 1327.82 -1488.13 -2331.33 2004.06 -1819.93 -2541.03 1535.6 -1597.35 -2430.43 1771.08 -1712.98 -2071.69 2023.92 -1898.14 -1815.13 3534.75 -2424.77 -2045.32 2141.48 -1951.01 -1831.53 3394.82 -2387.72 -2003.04 2341.02 -2035.21 -1861.23 3167.75 -2323.12 -1952.67 2600.91 -2135.53 -1902.99 2889.47 -2235.99 -2612.97 1262.98 -1458.34 -2115.66 2554.91 -2048.22 -2566.08 1360.32 -1512.05 -2152.62 2429.77 -2000.66 -2489.81 1526.02 -1599.28 -2216.34 2229.58 -1920.99 -2396.59 1743.63 -1706.59 -2300.96 1988.76 -1818.74 -2228.05 1783.2 -1762.71 -1899.51 3229.65 -2310.11 -2195.31 1894.82 -1816.1 -1921.86 3094.03 -2269.87 -2142.6 2084.42 -1901.61 -1961.47 2874.85 -2200.65 -2079.25 2331.86 -2004.45 -2015.85 2607.61 -2108.76 -2416.03 1511.6 -1605.58 -2005.04 2876.97 -2174.32 -2376.21 1615.83 -1659.21 -2034.37 2746.98 -2130.49 -2311.77 1793.04 -1745.69 -2085.55 2537.93 -2056.12 -2233.69 2024.96 -1850.84 -2154.56 2284.65 -1959.09 -3709.12 106.357 -668.774 -2988.64 881.288 -1224.42 -3647.93 156.343 -711.356 -3048.2 796.948 -1171.33 -3545.64 244.832 -783.421 -3148.36 665.547 -1086.04 -3415.77 367.446 -877.498 -3276.71 513.856 -982.935 -7555.21 -487.083 1224.03 -6136.81 -659.913 1434.42 -7453.13 -504.354 1254.11 -6274.71 -648.944 1430.32 -7275.83 -532.48 1299.48 -6497.07 -628.855 1417.12 -7037.88 -566.504 1348.41 -6765.73 -600.378 1389.8 -3874.78 47.7117 -598.138 -3109.04 789.411 -1137.28 -3810.42 95.0967 -638.814 -3172.92 708.348 -1085.09 -3702.51 179.25 -707.934 -3280.14 582.097 -1001.51 -3564.99 296.295 -798.659 -3417.12 436.51 -900.94 -6914.25 -342.905 976.225 -5544.68 -386.128 1073.76 -6813.11 -350.715 996.106 -5674.43 -387.596 1078.36 -6638.31 -362.453 1024.72 -5885.14 -387.623 1080.1 -6405.65 -374.587 1052.82 -6142.28 -383.571 1072.42 -4167.73 -8.96017 -437.613 -3315.14 654.15 -925.163 -4097.32 32.7716 -472.94 -3387.39 581.144 -876.444 -3978.69 107.234 -533.616 -3508.22 467.545 -799 -3826.54 211.392 -614.392 -3661.81 336.822 -706.837 -6051.08 -182.804 605.649 -4780.49 -37.6228 539.985 -5954.17 -177.099 610.581 -4896.91 -57.5991 557.133 -5787.77 -165.379 614.772 -5087.74 -87.3235 580.367 -5568.53 -146.037 612.715 -5323.58 -118.975 600.909 -4608.5 -40.9548 -166.205 -3628.38 487.575 -551.772 -4529.38 -8.53784 -191.481 -3713.19 428.542 -510.441 -4395.27 49.7253 -236.109 -3854.33 336.91 -445.768 -4221.86 131.989 -297.648 -4032.46 231.961 -370.653 -5237.73 -81.8077 199.328 -4107.2 265.658 -38.3505 -5148.84 -61.899 188.195 -4207.61 225.274 -8.09337 -4997.23 -25.4525 166.331 -4373.58 163.094 37.582 -4799.43 27.2518 132.382 -4581.1 92.8531 87.617 -2175.32 1064.88 -1367.62 -1906.28 2230.47 -2015.42 -2148.92 1147.72 -1425.48 -1925.5 2112.53 -1962.3 -2106.49 1291.04 -1519.96 -1958.92 1925.7 -1873.59 -2055.4 1483.18 -1637.03 -2003.85 1704.28 -1760.34 -3629.91 142.456 -696.164 -2929.51 929.742 -1255.86 -3570.13 193.5 -739.313 -2987.17 844.244 -1202.65 -3470.34 283.705 -812.226 -3084.2 711.018 -1117.07 -3343.88 408.445 -907.212 -3208.73 557.136 -1013.43 -2274.09 994.379 -1321.08 -1970.38 2138.01 -1965.95 -2244.86 1075.32 -1378.07 -1992.65 2021.68 -1912.4 -2197.66 1215.41 -1471.34 -2031.07 1837.71 -1823.27 -2140.46 1403.43 -1587.3 -2082.27 1620.17 -1710.02 -3472.93 219.15 -752.633 -2813.06 1033.67 -1320.23 -3416.06 272.526 -796.939 -2866.92 945.654 -1266.85 -3321.38 366.526 -871.568 -2957.73 808.434 -1180.76 -3201.84 495.979 -968.373 -3074.58 649.724 -1076.11 -2445.68 870.083 -1235.49 -2084.69 1967.72 -1871.95 -2411.81 947.124 -1290.69 -2111.98 1855.02 -1817.95 -2356.79 1080.61 -1381.39 -2158.7 1677.28 -1728.59 -2289.51 1260.18 -1494.87 -2220.3 1467.92 -1615.92 -3230.45 349.497 -850.263 -2635.95 1216.49 -1432.01 -3178.4 407.3 -896.666 -2683.84 1123.7 -1378.34 -3092.14 508.581 -974.403 -2764.79 978.816 -1291.37 -2983.9 647.168 -1074.49 -2869.37 810.749 -1184.95 -2678.3 703.377 -1115.41 -2244.16 1729.86 -1736.34 -2638.61 774.468 -1167.89 -2277.86 1623.07 -1682.18 -2573.67 897.928 -1254.62 -2335.21 1455.28 -1593.19 -2493.52 1064.68 -1364.08 -2410.17 1258.64 -1482.09 -2950.89 519.258 -978.327 -2435.59 1461.8 -1579.19 -2904.86 583.365 -1027.63 -2476.43 1362.27 -1525.2 -2829.05 695.124 -1109.65 -2545.65 1206.46 -1437.15 -2734.64 846.973 -1214.24 -2635.53 1024.87 -1328.37 -285.671 6140.28 -1729.84 -633.625 7243.05 -1718.01 -318.522 6234.69 -1739.46 -606.393 7152.39 -1729.57 -371.337 6392.03 -1751.03 -560.581 6999.75 -1744.43 -435.377 6591.14 -1757.83 -501.277 6803.82 -1755.51 -465.121 5586.31 -2000.38 -819.899 6837.03 -2046.55 -497.916 5692.41 -2016.13 -791.377 6733.13 -2054.49 -550.869 5869.6 -2037.42 -743.741 6558.69 -2062.77 -615.525 6094.52 -2055.66 -682.677 6335.65 -2064.52 -298.959 6099.72 -1752.61 -648.141 7214.58 -1744.91 -331.895 6195.11 -1762.69 -620.78 7122.88 -1756.23 -384.857 6354.12 -1774.96 -574.766 6968.49 -1770.65 -449.095 6555.37 -1782.59 -515.226 6770.37 -1781.08 -447.713 5640.06 -1977.07 -802.851 6877.38 -2017.26 -480.616 5745.13 -1992.2 -774.383 6774.71 -2025.6 -533.72 5920.58 -2012.51 -726.801 6602.3 -2034.59 -598.511 6143.19 -2029.6 -665.738 6381.74 -2037.32 -321.756 6029.76 -1790.47 -672.811 7164.77 -1789.86 -354.8 6126.79 -1801.31 -645.232 7071.3 -1800.77 -407.959 6288.55 -1814.8 -598.883 6914 -1814.4 -472.481 6493.35 -1823.85 -538.965 6712.22 -1823.7 -419.786 5726.47 -1938.54 -775.011 6942.03 -1969.35 -452.82 5829.87 -1952.7 -746.672 6841.36 -1978.31 -506.094 6002.45 -1971.47 -699.242 6672.2 -1988.39 -571.016 6221.3 -1986.73 -638.269 6455.67 -1992.64 -351.94 5936.62 -1838.43 -704.982 7097.33 -1847.31 -385.061 6035.71 -1850.29 -677.129 7001.6 -1857.64 -438.379 6200.96 -1865.38 -630.373 6840.55 -1870.22 -503.167 6410.27 -1876.33 -570.022 6634.09 -1878.01 -386.135 5830.74 -1890.12 -740.688 7019.52 -1909.92 -419.254 5932.05 -1903.13 -712.564 6921.27 -1919.57 -472.618 6101.07 -1920.06 -665.419 6756.09 -1930.92 -537.553 6315.28 -1933.16 -604.688 6544.49 -1936.96 -98.7882 4339.49 -1622.58 -457.637 5508.3 -2003.11 -127.925 4430.18 -1667.6 -424.839 5402.67 -1983.59 -176.488 4585.19 -1737.15 -371.701 5229.05 -1945.85 -238.551 4788.18 -1815.81 -306.535 5013.47 -1888.71 -430.033 3428.78 -1759.66 -726.455 4700.49 -2241.71 -452.85 3526.04 -1812.82 -698.04 4583.33 -2213.09 -491.363 3692.65 -1896.09 -652.512 4391.98 -2160.42 -541.501 3911.71 -1992.43 -597.609 4156.24 -2084.77 -119.765 4273.19 -1637.31 -475.962 5451.53 -2025.85 -148.601 4364.57 -1683.02 -443.323 5344.93 -2005.67 -196.698 4520.76 -1753.73 -390.471 5169.77 -1966.82 -258.23 4725.31 -1833.83 -325.714 4952.39 -1908.27 -393.01 3518.24 -1751.49 -698.355 4781.52 -2224.01 -416.682 3615.03 -1803.95 -669.272 4665.4 -2196.31 -456.574 3780.8 -1886.01 -622.601 4475.6 -2145.12 -508.38 3998.61 -1980.75 -566.19 4241.58 -2071.26 -156.953 4158.9 -1660.62 -507.987 5352.57 -2062.62 -185.219 4251.36 -1707.48 -475.671 5244.36 -2041.31 -232.429 4409.4 -1780.1 -423.396 5066.7 -2000.58 -292.941 4616.44 -1862.61 -359.448 4846.4 -1939.63 -335.924 3661.37 -1736.33 -654.182 4910.73 -2193.51 -360.849 3757.37 -1787.63 -624.145 4796.27 -2167.26 -402.756 3921.69 -1867.7 -575.839 4609 -2118.43 -456.988 4137.41 -1959.84 -517.26 4377.78 -2047.42 -208.658 4006.65 -1687.96 -551.533 5218.97 -2107.31 -236.059 4100.36 -1736.27 -519.755 5108.75 -2084.5 -281.908 4260.59 -1811.29 -468.429 4927.95 -2041.29 -340.831 4470.6 -1896.88 -405.789 4704.05 -1977.22 -270.826 3833.1 -1714.48 -602.442 5064.78 -2153.04 -297.076 3928.04 -1764.33 -571.444 4952.38 -2128.51 -341.099 4090.45 -1841.95 -521.478 4768.25 -2082.48 -397.863 4303.48 -1930.89 -460.679 4540.55 -2014.91 100.671 5044.69 -1430.25 -269.481 6094.65 -1724.43 69.918 5126.92 -1467.27 -236.395 6000.8 -1711.59 18.934 5267.23 -1523.83 -182.497 5846.01 -1685.21 -45.7148 5450.43 -1586.54 -115.874 5653 -1642.92 -88.9704 4370.97 -1615.28 -448.994 5535.09 -1991.94 -118.243 4461.32 -1659.96 -416.128 5429.94 -1972.74 -167.015 4615.75 -1728.95 -362.866 5257.06 -1935.52 -229.315 4817.97 -1806.9 -297.521 5042.37 -1879.07 87.5677 4993.74 -1446.54 -282.729 6053.62 -1746.99 56.853 5076.66 -1484.17 -249.569 5958.8 -1733.68 5.91526 5218.18 -1541.69 -195.579 5802.45 -1706.5 -58.7085 5403.05 -1605.57 -128.887 5607.54 -1663.15 -69.3247 4434.88 -1600.11 -431.53 5589.33 -1968.93 -98.8519 4524.52 -1644.09 -398.541 5485.15 -1950.36 -148.015 4677.75 -1711.94 -345.05 5313.81 -1914.21 -210.757 4878.36 -1788.47 -279.376 5100.94 -1859.12 64.7569 4906.7 -1473.35 -305.476 5982.87 -1784.47 34.1271 4990.76 -1512 -272.228 5886.46 -1770.36 -16.697 5134.28 -1571.16 -218.136 5727.53 -1741.81 -81.231 5321.87 -1637.04 -151.388 5529.51 -1696.65 -38.3816 4538.09 -1574.71 -403.533 5676.54 -1930.88 -68.2612 4626.57 -1617.55 -370.386 5573.96 -1913.31 -117.965 4777.8 -1683.53 -316.602 5405.17 -1878.86 -181.313 4975.77 -1757.75 -250.489 5195.32 -1825.98 33.8881 4792.18 -1506.81 -335.629 5888.75 -1831.92 3.41675 4877.68 -1546.78 -302.333 5790.33 -1816.76 -47.1802 5023.71 -1608.09 -248.21 5628.17 -1786.4 -111.495 5214.71 -1676.57 -181.507 5426.27 -1738.86 -2.0276 4663.53 -1542.2 -369.831 5781.81 -1883.03 -32.245 4750.57 -1583.64 -336.568 5681.24 -1866.66 -82.4627 4899.29 -1647.32 -282.547 5515.65 -1834.24 -146.376 5093.91 -1718.72 -216.057 5309.62 -1784.01 -1016.4 9642.59 -633.188 -928.596 9975.4 -257.14 -1011.64 9677.21 -598.976 -938.669 9953.49 -286.761 -1002.59 9732.08 -543.082 -954.345 9914.48 -336.925 -989.14 9796.8 -474.067 -972.275 9860.51 -402.062 -1240.92 9685.15 -914.026 -1145.05 10096.8 -472.368 -1235.76 9728.52 -875.119 -1156.09 10070.2 -508.455 -1225.92 9797.06 -811.072 -1173.25 10022.6 -568.982 -1211.27 9877.53 -731.11 -1192.86 9956.27 -646.56 -1034.32 9647.43 -654.301 -945.824 9985.65 -272.777 -1029.51 9682.7 -619.666 -955.915 9963.64 -302.893 -1020.36 9738.64 -563.048 -971.657 9924.26 -353.872 -1006.75 9804.63 -493.082 -989.718 9869.49 -420.021 -1220.94 9681.77 -886.891 -1126.01 10084.1 -450.572 -1215.78 9724.36 -848.386 -1136.84 10058.5 -486.137 -1205.96 9791.67 -785.02 -1153.73 10012.4 -545.831 -1191.37 9870.65 -705.954 -1173.1 9947.75 -622.412 -1064.63 9654.62 -690.299 -975.086 10001.9 -299.524 -1059.75 9691.03 -654.981 -985.211 9979.69 -330.514 -1050.43 9748.79 -597.181 -1001.06 9939.68 -382.914 -1036.59 9816.88 -525.641 -1019.31 9883.62 -450.798 -1188.03 9676.48 -843.406 -1094.45 10065 -416.185 -1182.9 9717.76 -805.555 -1105.01 10040.7 -450.838 -1173.14 9783.05 -743.318 -1121.54 9996.53 -509.084 -1158.66 9859.64 -665.757 -1140.6 9934.26 -583.943 -1103.87 9662.48 -737.645 -1013.09 10021.7 -334.997 -1098.9 9700.42 -701.49 -1023.28 9999.16 -367.156 -1089.4 9760.56 -642.226 -1039.28 9958.21 -421.437 -1075.31 9831.33 -568.706 -1057.76 9900.46 -491.583 -1147.02 9669.93 -791.009 -1054.87 10043.3 -375.57 -1141.95 9709.57 -753.976 -1065.2 10020.1 -409.024 -1132.3 9772.35 -693.166 -1081.42 9977.76 -465.368 -1117.99 9846.07 -617.54 -1100.17 9917.9 -537.97 -1250.6 9007.66 -1404.01 -1252.94 9665.02 -946.479 -1255.5 9072.5 -1365.68 -1257.11 9618.67 -985.737 -1261.56 9176.64 -1301.76 -1262.36 9537.61 -1050.82 -1265.67 9301.87 -1220.52 -1265.89 9428.02 -1132.85 -1485.2 8821.74 -1811.7 -1491.61 9664.38 -1315.6 -1491.05 8903.86 -1771.66 -1495.86 9604.43 -1359.69 -1498.37 9036.31 -1704.24 -1501.12 9499.69 -1432.16 -1503.56 9196.37 -1617.43 -1504.43 9358.4 -1522.38 -1270.44 8997.38 -1436.01 -1273.16 9667.42 -974.619 -1275.44 9063.41 -1397.44 -1277.34 9620.19 -1014.28 -1281.62 9169.52 -1333.08 -1282.58 9537.55 -1080 -1285.83 9297.17 -1251.21 -1286.1 9425.8 -1162.79 -1466.16 8841.34 -1773.37 -1472.31 9664.26 -1279.75 -1471.97 8921.67 -1733.36 -1476.56 9605.85 -1323.44 -1479.22 9051.17 -1666.06 -1481.83 9503.72 -1395.33 -1484.36 9207.59 -1579.54 -1485.17 9365.84 -1484.96 -1303.76 8977.44 -1489.86 -1307.11 9669.46 -1022.22 -1308.92 9045.54 -1450.92 -1311.3 9620.7 -1062.56 -1315.31 9155.06 -1385.87 -1316.55 9535.33 -1129.35 -1319.69 9286.91 -1303.01 -1320.05 9419.84 -1213.39 -1433.77 8873.04 -1711.69 -1439.43 9665.23 -1222.61 -1439.48 8950.53 -1671.78 -1443.67 9609.17 -1265.63 -1446.6 9075.41 -1604.78 -1448.95 9511.06 -1336.51 -1451.61 9226.14 -1518.81 -1452.33 9378.48 -1425.1 -1346.26 8947.65 -1559.52 -1350.41 9669.41 -1084.35 -1351.62 9018.56 -1520.18 -1354.61 9618.54 -1125.55 -1358.27 9132.67 -1454.36 -1359.88 9529.45 -1193.69 -1362.86 9270.17 -1370.34 -1363.34 9408.9 -1279.28 -1391.85 8910.86 -1636.78 -1396.81 9667.43 -1154.08 -1397.4 8985.04 -1597.09 -1401.04 9614.03 -1196.22 -1404.31 9104.5 -1530.59 -1406.32 9520.52 -1265.8 -1409.14 9248.56 -1445.48 -1409.74 9394.03 -1352.98 -1020.32 9092.27 -1059.44 -1018.52 9625.37 -649.913 -1024.18 9145.63 -1024.54 -1022.41 9588.61 -684.481 -1028.83 9231.07 -966.594 -1027.43 9523.88 -742.013 -1031.67 9333.32 -893.389 -1031.13 9435.66 -814.938 -1241.06 9012.18 -1388.6 -1243.21 9663.54 -932.971 -1245.9 9076.46 -1350.4 -1247.38 9617.6 -972.036 -1251.91 9179.68 -1286.71 -1252.63 9537.28 -1036.81 -1255.98 9303.75 -1205.77 -1256.17 9428.72 -1118.47 -1037.85 9088.79 -1084.79 -1036.45 9629.89 -671.227 -1041.78 9142.94 -1049.61 -1040.36 9592.49 -706.201 -1046.54 9229.62 -991.168 -1045.39 9526.71 -764.379 -1049.5 9333.33 -917.295 -1049.05 9437.16 -838.074 -1221.43 9021.31 -1357.37 -1223.23 9660.56 -905.643 -1226.18 9084.46 -1319.44 -1227.39 9615.48 -944.319 -1232.06 9185.82 -1256.21 -1232.63 9536.68 -1008.46 -1236.04 9307.59 -1175.92 -1236.18 9430.19 -1089.37 -1067.58 9081.29 -1127.72 -1066.79 9636.52 -707.548 -1071.64 9136.79 -1092.07 -1070.75 9597.97 -743.174 -1076.58 9225.61 -1032.81 -1075.8 9530.3 -802.397 -1079.73 9331.89 -957.831 -1079.41 9438.35 -877.346 -1189.05 9035.92 -1307.13 -1190.3 9655.93 -861.847 -1193.65 9097.31 -1269.65 -1194.44 9612.26 -899.891 -1199.34 9195.77 -1207.21 -1199.66 9535.94 -963.017 -1203.15 9313.92 -1128 -1203.22 9432.77 -1042.7 -1106.17 9069.05 -1183.71 -1106.07 9643.63 -755.288 -1110.39 9126.33 -1147.45 -1110.1 9603.51 -791.711 -1115.57 9218.04 -1087.15 -1115.2 9533.24 -852.217 -1118.95 9327.84 -1010.78 -1118.78 9437.95 -928.718 -1148.66 9053.01 -1246.23 -1149.26 9650.21 -809.065 -1153.07 9112.34 -1209.33 -1153.35 9608.3 -846.327 -1158.51 9207.4 -1147.92 -1158.51 9534.98 -908.188 -1162.12 9321.34 -1070.07 -1162.07 9435.77 -986.333 2141.15 15220.1 -789.877 2712.68 16274 -682.861 2199.8 15312.2 -784.216 2673.56 16187.6 -695.749 2292.76 15464.2 -773.569 2604.97 16042.6 -715.473 2402.67 15654.7 -757.72 2511.57 15856.8 -737.504 2497.28 17119.3 -2206.03 2615.59 18757.3 -1836.14 2517.56 17264.7 -2187.71 2613.66 18625.6 -1880.74 2546.26 17504 -2151.97 2607.97 18403.3 -1949.39 2574.36 17802.2 -2097.22 2595.5 18116.5 -2026.49 2154.41 15354.8 -892.68 2699.58 16456.9 -768.081 2210.96 15451.2 -886.203 2662.72 16366.6 -783.145 2300.35 15610.2 -873.927 2597.92 16215 -806.201 2405.58 15809.5 -855.523 2509.34 16020.8 -831.945 2424.1 16897.5 -2084.31 2578.9 18480.4 -1735.33 2447.36 17037.7 -2066.8 2573.87 18352.6 -1777.24 2481.1 17268.4 -2032.83 2562.98 18137.4 -1841.78 2515.7 17556.2 -1981.03 2543.9 17859.9 -1914.33 2174.81 15578.5 -1076.45 2666.92 16760 -918.496 2226.97 15681.9 -1068.32 2634.47 16663.3 -937.571 2308.93 15852.6 -1052.82 2577.13 16500.9 -966.807 2404.64 16066.3 -1029.47 2498.1 16292.8 -999.502 2330.69 16568.7 -1877.77 2552.69 18064.3 -1566.15 2359.61 16700.6 -1861.89 2542.1 17943 -1603.42 2402.83 16918 -1831.28 2521.82 17739 -1660.82 2449.51 17189.5 -1784.9 2490.72 17476.4 -1725.41 2204.13 15869.6 -1327.79 2615.24 17151.3 -1121.86 2249.37 15982 -1317.19 2589.38 17046.6 -1146.58 2319.76 16167.4 -1296.91 2543.2 16870.8 -1184.57 2400.79 16399.4 -1266.34 2478.58 16645.2 -1227.17 2253.13 16208.7 -1611.43 2566.81 17599.3 -1350.42 2289.94 16330.9 -1598 2548.79 17486.1 -1381.62 2346.3 16532.5 -1572.25 2515.92 17295.7 -1429.64 2409.61 16784.5 -1533.38 2468.55 17051.2 -1483.64 2129.41 15414.7 -2335.15 2525.47 17160.9 -2273.83 2176.25 15561.8 -2339.29 2503.45 17012.1 -2289.17 2248.03 15806.8 -2342.63 2462.74 16764.8 -2310.18 2328.6 16117.7 -2340.25 2403.28 16452.4 -2329.07 3456.43 18779 -7213.95 2461.27 22145.3 -6358.43 3378.2 19085.4 -7172.38 2549.44 21881.8 -6461.67 3244.74 19586.5 -7090.41 2695.44 21434.3 -6620.81 3070.55 20205.7 -6963.85 2878.2 20851.4 -6799.75 2205.64 15557.1 -2492.71 2564.89 17384.2 -2426.33 2249.97 15711.6 -2497.59 2546.41 17228.9 -2443.24 2317.26 15968.6 -2501.68 2511.5 16970.9 -2466.42 2391.64 16294.3 -2499.38 2459.13 16644.5 -2487.21 3093 18080.5 -6561.1 2279.32 21254.3 -5816.5 3030.58 18366.6 -6526 2352.64 21003.1 -5907.57 2923.29 18835.7 -6456.06 2473.68 20577.7 -6047.54 2781.93 19417.1 -6346.92 2624.43 20025.8 -6204.19 2267.65 15757.5 -2880.57 2522.26 17747.2 -2769.26 2303.04 15926.9 -2883.71 2512.41 17579.4 -2792 2355.44 16208.4 -2884.02 2492.03 17300 -2824.05 2410.97 16564.2 -2875.41 2458.28 16945.6 -2854.6 2676.99 17203 -5584.21 2141.68 20084.8 -5009.43 2639.45 17459.2 -5559.29 2192.76 19852.9 -5082.13 2573.02 17880.4 -5508.1 2276.23 19461.9 -5193.07 2482.49 18405.1 -5425.87 2378.4 18957.7 -5315.85 2302.45 16029.1 -3568.31 2358.24 18267.8 -3347.78 2319.55 16222.1 -3565.16 2363.74 18081.3 -3382.63 2342.11 16541.6 -3553.74 2369.54 17769.8 -3433.68 2360.89 16943.9 -3528.06 2370.06 17373 -3486.24 2403.71 16482.3 -4517.23 2179.81 19033.4 -4131.1 2394.74 16705.4 -4503.88 2206.68 18824.4 -4183.64 2374.94 17073.8 -4473.86 2248.98 18473.6 -4262.68 2341.84 17535.1 -4421.74 2297.42 18024.1 -4348.05 1315.43 14100.2 -853.634 2112 15175.3 -792.44 1388.84 14189.9 -847.63 2050.79 15082.9 -797.589 1508.63 14339.7 -838.292 1946.22 14929.7 -805.88 1656.09 14530.5 -827.325 1809.05 14736.6 -816.153 2079.53 15336.6 -2278.99 2486.61 17048.5 -2214.06 2126.82 15480.6 -2282.27 2463.28 16902.4 -2229.14 2199.59 15720.6 -2284.4 2420.51 16659.8 -2249.97 2281.8 16025.2 -2280.91 2358.66 16353.4 -2269.04 1349.92 14184.1 -958.076 2126.26 15308 -895.594 1422.03 14277.8 -952.481 2067.09 15211.4 -901.388 1539.45 14434.4 -943.616 1965.8 15051.2 -910.524 1683.57 14633.7 -932.872 1832.58 14849.3 -921.466 1979.3 15184 -2163.92 2412 16829.3 -2092.02 2027.8 15322.1 -2165.49 2385.78 16688.6 -2106.58 2103.07 15552.4 -2165.25 2338.39 16455 -2127.01 2189.22 15844.9 -2159.57 2271.17 16160.2 -2146.37 1417.45 14323 -1146.74 2148.76 15528.2 -1080.09 1486.42 14423.5 -1141.76 2093.91 15424.6 -1087.23 1598.28 14591.3 -1133.53 1999.66 15252.7 -1098.18 1734.8 14805.1 -1122.88 1875.05 15036.1 -1110.69 1829.13 14960.9 -1963.24 2315.87 16504.5 -1884.79 1880.85 15090.1 -1962.52 2284.08 16372.1 -1898.19 1962.17 15305.7 -1959.19 2227.69 16152.5 -1917.38 2057.1 15579.8 -1950.89 2149.67 15875.7 -1936.44 1523.6 14505.3 -1406.09 2181.42 15815 -1332.52 1587.27 14614.5 -1401.97 2133.42 15702.3 -1341.7 1689.82 14796.9 -1394.57 2050.44 15515.5 -1355.45 1813.78 15029.2 -1383.92 1939.73 15280.2 -1370.42 1666.52 14722.7 -1696.5 2234.5 16149.2 -1617.4 1723.76 14841.8 -1693.74 2194.89 16026.6 -1628.89 1814.96 15040.6 -1687.86 2125.69 15823.3 -1645.71 1923.56 15293.7 -1677.78 2032.01 15567.2 -1663.22 1350.26 12446 665.033 2175.32 12655.6 581.938 1424.82 12465.2 665.126 2111.24 12639.8 595.995 1547.37 12496.7 662.266 2001.76 12612.4 616.502 1699.5 12535.7 653.36 1858.48 12576.2 637.348 1742.05 13554.8 197.098 2518.46 14061.8 167.197 1815.04 13599.2 198.318 2460.31 14020.6 173.229 1933.62 13672.7 198.68 2360.23 13951.3 181.895 2078.62 13764.7 196.294 2227.75 13862.1 190.38 1383.2 12524.3 640.75 2211.1 12752.7 559.911 1458.22 12545 640.865 2146.96 12735.3 573.595 1581.41 12579.2 638.107 2037.32 12705.3 593.562 1734.2 12621.5 629.45 1893.7 12665.7 613.862 1705.14 13442.4 257.958 2495.14 13916.6 220.273 1779.04 13484 258.964 2435.7 13878.3 227.422 1899.28 13552.8 258.789 2333.49 13813.5 237.753 2046.59 13638.9 255.401 2198.4 13730.1 248.004 1436.74 12659.8 595.856 2267.19 12921.8 519.384 1512.32 12683.4 596.024 2203.1 12901.5 532.362 1636.28 12722.2 593.478 2093.48 12866.7 551.301 1789.77 12770.6 585.317 1949.71 12821.2 570.552 1646.56 13264 347.739 2454 13687.4 298.942 1721.56 13301.3 348.459 2392.85 13653.3 307.708 1843.85 13362.9 347.546 2287.84 13595.7 320.442 1994.07 13439.9 342.746 2149.32 13521.3 333.233 1503.59 12842.1 529.546 2332.93 13150.8 459.938 1579.52 12869.6 529.822 2269.28 13126.5 471.836 1703.84 12915 527.642 2160.27 13085.1 489.194 1857.41 12971.7 520.285 2017.06 13031.2 506.818 1576.23 13052.6 443.969 2398 13417.5 383.835 1651.99 13084.9 444.429 2335.33 13388.4 394.287 1775.78 13138.2 442.802 2227.87 13339.1 409.515 1928.3 13204.9 436.592 2086.41 13275.1 424.923 827.094 13030.4 77.8014 1724.86 13588.3 164.785 904.098 13078.3 90.55 1650.92 13542.1 162.296 1032.25 13157.8 109.327 1526.57 13464.5 156.312 1194.22 13258.2 128.987 1367.16 13365.5 145.306 1300.01 14059 -805.688 2104.48 15110.5 -744.708 1373.89 14146.8 -799.467 2042.45 15020.2 -749.594 1494.57 14293.3 -789.862 1936.54 14870.4 -757.553 1643.3 14479.9 -778.725 1797.8 14681.6 -767.588 872.417 13113.1 14.2276 1763.16 13704.8 98.8443 949.223 13163.7 26.4846 1690.15 13655.5 96.2375 1076.86 13247.8 44.5537 1567.24 13573 90.1998 1237.87 13354 63.5231 1409.42 13467.7 79.3687 1266.83 13972.5 -711.467 2085.31 14975.7 -650.213 1341.49 14056.3 -704.757 2021.76 14889.7 -654.636 1463.65 14196.2 -694.523 1913.44 14746.9 -662.034 1614.61 14374.4 -682.927 1771.84 14566.8 -671.723 945.713 13253.9 -93.7157 1825.99 13905.5 -13.5031 1022.3 13309.3 -82.3393 1754.44 13850.8 -16.2881 1149.25 13401.4 -65.5414 1633.75 13759.4 -22.3768 1308.88 13518.1 -47.8231 1478.35 13643.3 -32.8529 1207.47 13825.6 -566.664 2044.19 14750.4 -503.304 1282.99 13903 -559.052 1978.53 14671.3 -507.148 1406.92 14032.2 -547.606 1866.89 14539.9 -513.911 1560.65 14196.6 -534.995 1721.47 14374 -523.363 1035.09 13437 -236.241 1903.06 14170.9 -162.03 1111.48 13498.9 -226.064 1833.27 14108.8 -165.049 1237.71 13602.2 -210.994 1715.26 14005.3 -171.2 1395.75 13733.2 -194.973 1562.77 13874.1 -181.191 1126.8 13637.6 -400.002 1980.52 14467.3 -332.006 1202.9 13707.3 -391.163 1912.71 14396.7 -335.363 1328.2 13823.5 -378.004 1797.72 14279.1 -341.697 1484.36 13971.3 -363.822 1648.55 14130.5 -351.269 436.108 12168.8 559.163 1313.94 12436.7 664.494 508.112 12193.9 575.194 1238.76 12416.9 662.442 629.472 12234.8 598.815 1113.42 12382.6 656.259 785.402 12285 623.426 954.788 12336.8 643.45 804.917 12990.9 108.187 1706.27 13533.2 196.225 882.033 13037.5 121.162 1631.85 13488.3 193.797 1010.46 13114.9 140.263 1506.78 13413.1 187.847 1172.93 13212.6 160.239 1346.57 13316.9 176.769 460.683 12229.1 535.702 1346.65 12514.2 640.211 533.568 12255.5 551.623 1270.95 12492.8 638.17 656.308 12298.7 575.071 1144.7 12455.9 632.037 813.839 12351.9 599.486 984.771 12406.9 619.34 761.611 12910.8 167.032 1668.93 13422.1 257.16 838.858 12954.9 180.443 1593.69 13380.1 254.842 967.68 13028.2 200.174 1467.35 13309.4 248.945 1130.94 13120.5 220.764 1305.76 13218.9 237.715 502.465 12332.8 492.431 1399.88 12648.4 595.31 576.657 12361.6 508.117 1323.52 12624.2 593.28 701.418 12408.8 531.203 1196.04 12582.7 587.23 861.251 12467.2 555.221 1034.36 12528.1 574.741 696.866 12782.1 253.669 1609.85 13245.9 347.038 774.032 12822.5 267.721 1533.64 13208.2 344.852 902.98 12889.4 288.383 1405.86 13144.6 338.992 1066.84 12973.5 309.894 1242.79 13062.7 327.495 558.574 12470.5 428.636 1466.53 12828.7 528.977 634.127 12502.6 443.926 1389.7 12800.6 526.94 760.938 12555.5 466.412 1261.27 12752.8 520.985 923.008 12621.3 489.79 1098.1 12690.3 508.794 625.466 12627.3 346.333 1539.2 13036.9 443.349 702.079 12663.4 361.057 1462.38 13004.1 441.265 830.392 12723.1 382.703 1333.8 12948.6 435.384 993.923 12797.8 405.211 1170.07 12876.7 423.545 2815.82 12836.6 322.26 3042.87 12957.3 5.80526 2850.17 12848.7 296.362 3038.63 12949 33.9402 2900.99 12868.2 253.053 3025.39 12934.4 80.0357 2954.19 12891.3 197.671 2997.63 12914.5 137.302 3071.74 14519.4 75.3402 3247.64 14778.5 0.675317 3099.98 14549.2 67.4561 3245.51 14764 6.13304 3141.19 14595.3 55.255 3236.86 14737 15.3129 3183.39 14647.9 41.1738 3216.7 14697.3 27.3529 2850.35 12951.6 308.705 3075.73 13081.7 5.44939 2884.55 12964.9 283.755 3071.63 13073 32.3103 2935.13 12986.1 242.099 3058.62 13057.5 76.3454 2988.03 13011.3 188.94 3031.15 13036.2 131.112 3064.45 14344.8 106.309 3248.77 14590.2 1.19576 3093.74 14372.7 96.1195 3246.35 14576.3 9.47438 3136.6 14416.1 79.9552 3237.01 14550.4 23.2583 3180.65 14465.8 60.643 3215.64 14512.7 40.9618 2902.54 13152.5 283.972 3124.47 13299.4 4.82846 2936.4 13167.9 260.774 3120.59 13289.9 29.3837 2986.42 13192.3 222.164 3107.98 13272.8 69.6819 3038.64 13221 173.087 3081.08 13249.1 119.901 3045.18 14069.1 152.452 3241.13 14292.5 2.02269 3075.92 14094.2 138.841 3238.3 14279.5 14.5079 3121.04 14133.2 116.791 3228 14255.5 35.1551 3167.66 14178.1 89.7005 3204.96 14220.8 61.2964 2959.62 13425.8 248.081 3175.65 13595.7 3.98542 2992.81 13444 227.463 3172.06 13585.1 25.2245 3041.78 13472.7 193.325 3160.04 13565.9 60.1347 3092.77 13506.3 150.209 3134.06 13538.8 103.772 3009.73 13745.1 202.639 3216.94 13941.9 3.00578 3041.86 13766.7 185.333 3213.71 13930 20.0758 3089.16 13800.6 156.916 3202.47 13908.4 48.1981 3138.25 13839.8 121.395 3177.79 13877.5 83.518 2556.64 14154.6 137.047 3059.78 14591.1 62.837 2611.19 14196.1 131.158 3028.61 14558.7 69.7643 2696.82 14263.4 121.282 2972.18 14502.8 80.9251 2796.33 14345.1 108.562 2892.44 14428.8 94.5091 2735.65 16225.5 -637.031 3043.67 17065.3 -405.884 2772.72 16307.8 -623.629 3026.5 17004.1 -431.239 2829.07 16439.7 -598.581 2995.02 16898.6 -471.149 2891.68 16598.1 -562.179 2949.26 16758.2 -517.576 2578.74 14309.3 80.2959 3065.72 14775 28.2087 2631.87 14353.8 75.7705 3035.76 14740.5 32.7656 2715.11 14425.7 68.3822 2981.45 14681 40.1844 2811.61 14513 59.1918 2904.54 14602.1 49.3901 2739.34 16038.6 -558.702 3067.65 16841.9 -359.48 2778.3 16117.2 -547.406 3049.1 16783.2 -381.549 2837.78 16243.1 -526.123 3015.11 16682.2 -416.232 2904.29 16394.5 -494.935 2965.88 16547.7 -456.464 2615.86 14578 -16.5565 3076.87 15095.1 -31.0057 2666.71 14627.6 -18.7626 3048.84 15056.9 -30.4839 2746.12 14707.6 -21.9207 2997.93 14991.1 -29.4331 2837.76 14804.7 -25.1067 2925.59 14903.7 -27.6768 2731.39 15727.8 -435.58 3090.28 16470.1 -285.852 2773.15 15800.1 -427.495 3069.61 16415.8 -302.77 2837.3 15916.2 -411.98 3031.81 16322.2 -329.281 2909.67 16056 -388.827 2977.31 16197.7 -359.861 2661.35 14936.3 -144.52 3090.22 15523 -109.252 2709.37 14992.9 -143.651 3064.56 15479.8 -114.052 2784.02 15084 -141.207 3017.83 15405.4 -121.399 2869.64 15194.3 -136.453 2951.13 15306.5 -129.472 2703.86 15339.7 -290.212 3097.68 16005.7 -198.006 2748.77 15404.3 -285.785 3074.55 15956.8 -208.864 2818.19 15508.1 -276.878 3032.32 15872.6 -225.784 2897.19 15633.4 -262.999 2971.75 15760.6 -245.081 2205.85 12663.1 574.672 2798.16 12830.5 334.748 2267.4 12678.4 559.008 2759.9 12817.8 359.882 2365.28 12703.6 531.06 2691.07 12796 399.636 2481.05 12734.7 492.285 2594.98 12767.1 446.396 2546.05 14081.5 164.071 3057.12 14504.5 79.303 2601.3 14121.8 157.53 3025.36 14473 87.3609 2688.1 14186.8 146.467 2967.88 14418.9 100.307 2789.09 14266 132.062 2886.76 14347.1 115.98 2241.65 12761 552.84 2832.76 12944.9 320.748 2303.22 12777.9 537.609 2794.64 12931 344.992 2401.05 12805.6 510.478 2726.07 12907 383.357 2516.64 12839.9 472.909 2630.29 12875.4 428.525 2523.35 13935.1 216.574 3049.31 14330.8 111.366 2579.91 13972.6 208.78 3016.42 14301.3 121.621 2668.89 14033.4 195.428 2956.99 14250.5 138.033 2772.65 14107.4 177.767 2873.24 14183.3 157.757 2297.68 12931.5 512.68 2885.12 13144.8 295.189 2359.11 12951.2 498.266 2847.36 13128.7 317.783 2456.6 12983.5 472.672 2779.43 13101 353.573 2571.59 13023.2 437.36 2684.45 13064.3 395.78 2483.04 13703.7 294.412 3029.31 14056.6 159.131 2541.34 13737 284.797 2994.88 14030.2 172.642 2633.27 13791.1 268.105 2932.73 13984.8 194.182 2740.79 13857 245.675 2845.38 13924.7 219.887 2363.21 13162.4 453.793 2942.53 13416.7 258.078 2424.13 13186.1 440.62 2905.48 13397.5 278.235 2520.63 13224.8 417.345 2838.77 13364.6 310.212 2634.19 13272.1 385.419 2745.38 13321 348.021 2427.79 13431.5 378.438 2993.16 13734.3 211.07 2487.65 13459.9 366.915 2957.24 13711.6 228.09 2582.28 13506.1 346.704 2892.5 13672.5 255.147 2693.31 13562.6 319.215 2801.7 13620.8 287.263 -1663.92 5740.99 -2779.48 -1653.88 7426.86 -2695.98 -1663.08 5888.15 -2782.72 -1654.11 7290.49 -2714.05 -1661.45 6131.92 -2784.12 -1654.99 7060.07 -2739.31 -1659.16 6438.12 -2778.53 -1656.78 6762.82 -2763 -1781.02 3950.81 -2499.59 -1513.35 5794.51 -2805.99 -1753.6 4100.17 -2535.39 -1530.68 5635.37 -2791.91 -1709.67 4352.98 -2591.69 -1561.89 5370.37 -2762.83 -1657.32 4679.45 -2656.42 -1605.56 5035.67 -2716.61 -1664.47 5634.57 -2764.67 -1638.65 7330.75 -2701.98 -1662 5782.2 -2769.69 -1639.9 7193.21 -2718.34 -1657.76 6026.94 -2774.05 -1642.63 6960.92 -2740.72 -1652.4 6334.72 -2772.22 -1646.99 6661.48 -2760.71 -1774.88 4072.82 -2509.9 -1537.61 5881.23 -2773.07 -1751.02 4219.98 -2541.81 -1553.31 5725.68 -2762.27 -1712.62 4468.71 -2591.67 -1581.47 5466.44 -2738.86 -1666.52 4789.35 -2648.35 -1620.57 5138.67 -2700.15 -1673.53 5413.45 -2728.01 -1620.18 7120.39 -2704.77 -1668.31 5560.92 -2736.27 -1623.35 6981.07 -2717.78 -1659.69 5805.91 -2746.1 -1629.44 6746.09 -2734.57 -1649.06 6114.85 -2751.31 -1638.37 6443.81 -2747.44 -1758.05 4315.33 -2539.99 -1567.01 6079.95 -2734.03 -1739.29 4460.49 -2565.89 -1579.95 5929.49 -2728.68 -1708.89 4705.02 -2605.73 -1603.06 5678.24 -2714.61 -1672.05 5018.98 -2649.74 -1634.94 5359.66 -2688.1 -1696.64 5072.63 -2666.78 -1604.8 6788.5 -2703.28 -1687.74 5218.87 -2679.82 -1610.79 6646.69 -2711.14 -1673.15 5462.72 -2697.8 -1621.75 6408.18 -2719.33 -1655.28 5771.77 -2713.6 -1637.19 6102.63 -2721.32 -1729.1 4672.12 -2596.1 -1589.6 6404.01 -2709.07 -1715.6 4817.04 -2615.28 -1599.06 6258.49 -2710.41 -1693.59 5059.96 -2643.73 -1616.03 6014.67 -2707.65 -1666.72 5369.88 -2673.13 -1639.49 5704.03 -2695.72 -2279.28 2195.34 -1904.81 -1796.66 3824.83 -2476.24 -2229.09 2321.86 -1959.08 -1828.01 3676.97 -2435.96 -2149.44 2537.69 -2047.81 -1884.28 3434.3 -2364.7 -2055.33 2820.04 -2156.58 -1962.63 3133.64 -2267.74 -4156.56 -655.69 1203 -2138.43 -264.139 497.82 -3987.34 -639.264 1161.09 -2311.05 -316.134 575.182 -3704.99 -605.919 1083.98 -2597.53 -394.146 696.725 -3346.1 -552.039 973.121 -2959.15 -478.443 837.772 -2332.43 2067.43 -1823.74 -1785.87 3683.03 -2428.27 -2276.19 2192.05 -1880 -1822.14 3535.28 -2384.38 -2186.78 2404.89 -1972.37 -1886.75 3293.37 -2307.45 -2080.83 2683.88 -2086.37 -1975.98 2994.57 -2203.88 -3718.56 -214.605 766.754 -1920.54 318.203 68.8943 -3565.37 -184.745 722.109 -2072.38 255.638 142.325 -3311.02 -129.672 641.853 -2325.05 159.497 258.691 -2989.67 -49.3796 529.508 -2645.26 51.2403 395.598 -2409.45 1828.74 -1598.29 -1733.85 3356.15 -2240.1 -2341.68 1945.48 -1655.97 -1780.77 3214.8 -2191.1 -2233.48 2145.14 -1751.32 -1863.09 2984.25 -2106.54 -2104.25 2407.52 -1870.31 -1974.88 2700.84 -1994.82 -3185.23 390.162 123.164 -1701.13 1157.37 -566.145 -3054.85 441.583 74.239 -1823.05 1076.88 -498.616 -2840.25 531.931 -11.1357 -2027.2 950.044 -389.857 -2572.17 655.715 -126.334 -2288.27 801.428 -258.723 -2530.61 1469.06 -1172.99 -1649.67 2799.33 -1840.25 -2445.83 1569.23 -1229.78 -1714.77 2673.87 -1785.52 -2309.3 1740.91 -1324.69 -1826.86 2470.47 -1693.09 -2144.08 1967.48 -1445.2 -1975.64 2222.33 -1574.21 -2769.15 982.39 -568.647 -1609.75 2036.49 -1249.29 -2662.79 1059.1 -622.133 -1700.75 1933.37 -1188.3 -2489.66 1191.39 -713.113 -1854.86 1767.96 -1087.83 -2276.68 1367.81 -831.678 -2055.07 1569.02 -962.765 -1726.18 3920.7 -2552.83 -1664.31 5669.56 -2777.24 -1718.18 4065.88 -2583.23 -1665.77 5521.49 -2770.75 -1705.66 4309.71 -2629.53 -1670.18 5273.82 -2754.34 -1691.48 4621.67 -2680.16 -1678.89 4959.11 -2723.98 -2249.84 2254.1 -1929.46 -1794.6 3879.24 -2481.75 -2202.34 2380.77 -1982.47 -1823.93 3732.42 -2443.38 -2126.98 2596.69 -2068.91 -1876.75 3491.13 -2375.21 -2038.01 2878.81 -2174.52 -1950.52 3191.68 -2281.97 -1753.77 3812.91 -2516.42 -1665.68 5562.96 -2761.59 -1743.09 3957.75 -2548.47 -1668.89 5414.5 -2753.32 -1726.29 4201.23 -2597.6 -1676.41 5166.23 -2733.93 -1707.04 4513.14 -2651.91 -1689.41 4850.92 -2699.78 -2190.49 2382.17 -1979.99 -1786.66 4002.22 -2493.94 -2148.04 2509.46 -2030.45 -1812.23 3857.18 -2459.42 -2080.76 2726.07 -2112.32 -1858.57 3618.17 -2397.43 -2001.47 3008.41 -2211.6 -1923.75 3320.52 -2311.62 -1807.58 3603.48 -2442.23 -1676.09 5341.98 -2723.37 -1792.43 3746.56 -2477.02 -1682.2 5193.9 -2711.9 -1768.54 3987.51 -2530.89 -1694.88 4946.43 -2687.18 -1740.9 4296.82 -2591.49 -1714.96 4632.52 -2646.36 -2098.14 2616.86 -2071.16 -1767.29 4245.55 -2526.91 -2062.89 2746.45 -2117.79 -1787.51 4101.81 -2498.26 -2007.08 2966.41 -2192.79 -1824.67 3863.94 -2445.72 -1941.52 3251.98 -2282.5 -1877.67 3566.08 -2371.24 -1889.08 3296.42 -2329.22 -1701.02 5001.91 -2659.86 -1868.13 3435.62 -2367.55 -1711 4855.53 -2643.71 -1835.05 3670.55 -2427.64 -1730.47 4611.34 -2611.35 -1796.54 3973.04 -2496.66 -1759.82 4302.39 -2561.15 -1991.23 2941.15 -2195.31 -1735.73 4602.24 -2586.24 -1963.47 3075.16 -2237.69 -1750.48 4457.9 -2564.13 -1919.59 3301.94 -2305.04 -1778.23 4217.95 -2522.12 -1868.25 3595.07 -2384.09 -1818.7 3915.71 -2460.27 -1350.41 7628.72 -2235.29 -1491.04 8771.21 -1849.85 -1367.78 7735.01 -2208.79 -1483.8 8685.1 -1888.73 -1394.1 7908.36 -2162.17 -1470.1 8536.97 -1950.8 -1423.17 8121.28 -2098.64 -1449.57 8341.14 -2024.8 -1570.83 6867.97 -2616.95 -1691.37 8273.97 -2317.63 -1585.16 6995.13 -2600.01 -1684.52 8164.31 -2351.63 -1606.99 7203.89 -2568.41 -1671.99 7977.42 -2404.52 -1631.35 7462.8 -2522.29 -1653.92 7733.34 -2465.08 -1369.23 7584.53 -2271.56 -1509.44 8749.46 -1889.14 -1386.51 7692.71 -2245.5 -1502.17 8661.47 -1927.96 -1412.7 7869.23 -2199.55 -1488.45 8510.2 -1989.84 -1441.63 8086.19 -2136.71 -1467.95 8310.36 -2063.46 -1550.06 6967.81 -2591.48 -1674.92 8350.31 -2279 -1564.95 7093.29 -2573.23 -1667.87 8242.94 -2313.9 -1587.62 7299.13 -2539.54 -1654.97 8059.75 -2368.39 -1612.9 7554.1 -2490.89 -1636.28 7820.13 -2431.13 -1399.74 7507.45 -2331.13 -1539.17 8709.16 -1955.01 -1416.84 7618.72 -2305.92 -1531.85 8618.06 -1993.62 -1442.78 7800.4 -2261.25 -1518.1 8461.6 -2055.01 -1471.48 8023.92 -2199.81 -1497.64 8255.17 -2127.77 -1517.39 7112.29 -2544.84 -1647.75 8456.67 -2213.63 -1533.02 7234.95 -2524.69 -1640.5 8352.92 -2249.77 -1556.81 7435.92 -2487.95 -1627.16 8175.59 -2306.46 -1583.3 7684.42 -2435.65 -1607.72 7943.12 -2372.28 -1437.57 7399.67 -2404.59 -1575.49 8647.44 -2039.09 -1454.37 7514.73 -2380.69 -1568.12 8552.38 -2077.21 -1479.88 7702.78 -2338.02 -1554.36 8389.33 -2137.63 -1508.16 7934.47 -2278.83 -1534.02 8174.59 -2208.84 -1478.25 7264.46 -2479.81 -1613.26 8561.83 -2129.7 -1494.57 7383.49 -2457.65 -1605.89 8462.38 -2166.99 -1519.37 7578.26 -2417.71 -1592.25 8292.09 -2225.8 -1546.92 7818.64 -2361.67 -1572.23 8068.31 -2294.64 -1391.21 5171.97 -2653.14 -1574.05 6753.71 -2635.84 -1408.55 5308.24 -2663.23 -1559.38 6623.93 -2649.23 -1436.23 5534.75 -2675.36 -1535.02 6405.51 -2666.41 -1469.6 5820.55 -2682.35 -1503.91 6125.16 -2679.29 -1713.99 3967.94 -2568.05 -1664.92 5713.95 -2782.56 -1707.31 4113.1 -2597.65 -1665.53 5566.25 -2776.89 -1696.86 4356.77 -2642.58 -1668.42 5319.19 -2761.88 -1685.16 4668.35 -2691.43 -1675.03 5005.18 -2733.32 -1423.25 5053.27 -2657.93 -1593.62 6649.41 -2658.58 -1439.25 5190.36 -2669.56 -1579.73 6518.03 -2670.51 -1464.83 5418.38 -2684.27 -1556.79 6297.08 -2685.23 -1495.73 5706.42 -2694.51 -1527.66 6013.81 -2694.93 -1688.97 4063.64 -2594.84 -1665.76 5801.41 -2788.83 -1684.93 4208.55 -2622.76 -1664.64 5654.68 -2784.88 -1678.7 4451.56 -2664.84 -1664.46 5409.19 -2772.75 -1672 4761.91 -2710 -1666.83 5097.04 -2747.9 -1473.51 4866.66 -2663.23 -1619.89 6488.07 -2694.67 -1486.97 5005.2 -2677.5 -1607.53 6353.91 -2704.09 -1508.54 5235.94 -2696.62 -1587.35 6128.58 -2714.57 -1534.75 5527.94 -2712.44 -1562.08 5840.2 -2718.8 -1647.04 4221.35 -2627.63 -1664.76 5940.48 -2787.44 -1647.2 4365.41 -2652.72 -1660.91 5795.81 -2786.32 -1647.64 4606.64 -2690.02 -1655.87 5553.67 -2778.98 -1648.87 4914.1 -2729.03 -1651.55 5245.48 -2760.28 -1532.9 4645.91 -2663.45 -1643.31 6300.55 -2735.37 -1542.61 4786.39 -2681.17 -1633.31 6162.81 -2741.48 -1558.24 5020.73 -2706.04 -1617.33 5931.77 -2746.36 -1577.44 5317.98 -2729.19 -1597.89 5636.7 -2743.38 -1593.04 4422.43 -2652.41 -1658.32 6112.17 -2769.33 -1598.09 4564.91 -2673.92 -1651.31 5970.66 -2771.74 -1606.31 4803.05 -2705.17 -1640.65 5733.61 -2770.38 -1616.76 5105.88 -2736.45 -1628.56 5431.45 -2759.37 -1084.05 6211.38 -2411.29 -1341.59 7576.69 -2247.68 -1110.19 6332.26 -2407.64 -1323.03 7467.99 -2271.86 -1151.47 6531.89 -2397.35 -1291.2 7283.6 -2307.75 -1200.22 6781.42 -2376.86 -1248.83 7044.39 -2345.58 -1375.24 5230.96 -2650.4 -1563.58 6805.95 -2624.58 -1393.18 5366.86 -2659.75 -1548.57 6676.94 -2638.66 -1421.8 5592.66 -2670.66 -1523.61 6459.72 -2657.02 -1456.26 5877.42 -2676.1 -1491.62 6180.73 -2671.4 -1105.83 6145.57 -2439.5 -1360.45 7531.58 -2283.73 -1131.59 6268.07 -2436.67 -1342.01 7421.01 -2307.41 -1172.3 6470.45 -2427.69 -1310.43 7233.54 -2342.4 -1220.42 6723.57 -2408.74 -1268.47 6990.52 -2378.97 -1343.77 5346.07 -2642.26 -1542.52 6906.58 -2599.75 -1362.86 5481.12 -2650.15 -1526.9 6779.16 -2615.17 -1393.28 5705.34 -2658.64 -1500.79 6564.43 -2635.79 -1429.81 5987.83 -2661.03 -1467.17 6288.36 -2653.11 -1141.91 6033.83 -2484.42 -1391.05 7453.03 -2342.87 -1166.97 6158.89 -2483.03 -1372.83 7339.42 -2365.62 -1206.6 6365.63 -2476.38 -1341.72 7146.97 -2398.94 -1253.53 6624.47 -2460.2 -1300.53 6897.81 -2433.17 -1295.91 5517.67 -2621.74 -1509.46 7052.41 -2554.06 -1316.67 5651.07 -2627.39 -1492.99 6927.68 -2571.44 -1349.69 5872.33 -2632.16 -1465.31 6717.25 -2595.42 -1389.21 6150.67 -2629.92 -1429.4 6446.24 -2617.14 -1188.49 5884.27 -2536.75 -1429.04 7343.42 -2415.67 -1212.46 6012.33 -2537.4 -1411.19 7226.09 -2437.01 -1250.44 6224.24 -2534.01 -1380.84 7027.57 -2467.84 -1295.54 6489.93 -2521.75 -1340.89 6770.95 -2498.67 -1241.55 5706.72 -2585.52 -1469.98 7206.3 -2490.02 -1264.05 5837.71 -2588.6 -1452.71 7085.09 -2509.5 -1299.76 6054.72 -2589.18 -1423.52 6880.29 -2537.11 -1342.32 6327.23 -2581.76 -1385.36 6616.04 -2563.61 -1498.47 9693.24 -1311.81 -1388.45 10264.9 -805.169 -1493.05 9750.96 -1267.42 -1401.41 10225.9 -846.676 -1482.3 9843.19 -1194.21 -1421.56 10157.1 -916.296 -1465.74 9953.21 -1102.58 -1444.47 10062.9 -1005.49 -1702.13 9500.09 -1800.51 -1589.51 10307.3 -1237.95 -1697.37 9581.12 -1754.39 -1603.51 10252 -1287.3 -1687.33 9710.88 -1677.07 -1625.07 10154.5 -1368.63 -1671 9866.06 -1578.07 -1649.18 10021.1 -1470.34 -1517.31 9693.7 -1348.9 -1407.13 10277.8 -836.026 -1511.88 9753.01 -1304.09 -1420.03 10238.6 -878.124 -1501.1 9847.77 -1230.11 -1440.13 10168.9 -948.719 -1484.45 9960.69 -1137.42 -1463.08 10073 -1039.11 -1686.87 9544.13 -1754.46 -1575.76 10316.3 -1192.9 -1682.11 9622.48 -1708.07 -1589.41 10264.5 -1241.75 -1672.09 9747.76 -1630.43 -1610.51 10172.5 -1322.45 -1655.84 9897.13 -1531.27 -1634.24 10045.7 -1423.68 -1548.13 9690.81 -1412.23 -1438.07 10296.3 -888.861 -1542.77 9752.81 -1366.79 -1450.9 10256.4 -932.057 -1532.03 9851.83 -1291.63 -1470.95 10185.2 -1004.41 -1515.35 9969.59 -1197.25 -1493.92 10086.2 -1096.89 -1660.49 9600.77 -1679.88 -1550.81 10324.2 -1122.51 -1655.67 9675.1 -1633.28 -1564.04 10276.9 -1170.36 -1645.57 9793.75 -1555.5 -1584.61 10192.1 -1249.7 -1629.32 9934.74 -1456.55 -1607.92 10074.1 -1349.7 -1586.14 9678.15 -1495.5 -1476.57 10313.7 -959.222 -1580.94 9743.75 -1449.42 -1489.38 10272.6 -1003.94 -1570.38 9848.43 -1372.99 -1509.42 10198.7 -1078.65 -1553.8 9972.68 -1276.67 -1532.39 10095.3 -1173.82 -1625.48 9648.73 -1588.95 -1516.28 10324 -1040.36 -1620.49 9718.58 -1542.44 -1529.2 10280.6 -1086.74 -1610.18 9830 -1465.05 -1549.39 10202.2 -1163.97 -1593.8 9962.16 -1367.06 -1572.44 10092.4 -1261.85 -1702.37 8286.59 -2319.3 -1711.2 9435.39 -1845.27 -1707.99 8394.52 -2283.87 -1714.72 9349.56 -1890.31 -1715.06 8570.05 -2223.01 -1719.02 9201.68 -1963.15 -1720.24 8784.82 -2142.52 -1721.51 9005.67 -2051.76 -1662.57 7529.88 -2681.58 -1626.54 8987.27 -2340.43 -1662.46 7663.11 -2660.09 -1632.01 8874.23 -2376.8 -1660.81 7881.06 -2621.26 -1640.26 8681.68 -2434.17 -1656.39 8150.1 -2566.67 -1649.11 8429.95 -2501.31 -1715.83 8208.49 -2357.9 -1722.85 9388.37 -1892.13 -1721.21 8318.88 -2323.42 -1726.44 9299.76 -1936.72 -1727.93 8498.59 -2264.05 -1730.89 9147.32 -2008.71 -1732.71 8718.79 -2185.24 -1733.63 8945.62 -2096.06 -1679.44 7600.9 -2667.26 -1649.86 9040.68 -2310.71 -1680.14 7732.68 -2644.31 -1655.01 8929.25 -2348.23 -1679.71 7948.22 -2603.12 -1662.66 8739.29 -2407.58 -1676.64 8214.2 -2545.65 -1670.58 8490.73 -2477.34 -1729.78 8091.41 -2421.42 -1733.11 9322.04 -1970.36 -1734.69 8205.88 -2388.62 -1736.83 9228.94 -2014.12 -1740.67 8392.48 -2331.85 -1741.57 9069.1 -2084.57 -1744.64 8621.58 -2256.02 -1744.84 8858.17 -2169.65 -1702.93 7706.92 -2632.61 -1682.58 9112.18 -2252.82 -1704.79 7835.82 -2607.37 -1687.29 9003.83 -2292.02 -1706.14 8046.57 -2562.53 -1694.09 8818.86 -2354.27 -1705.01 8306.5 -2500.66 -1700.69 8576.49 -2427.92 -1733.94 7959.95 -2498.67 -1731.31 9252.37 -2068.12 -1738.08 8079.47 -2468.14 -1735.26 9153.86 -2110.66 -1742.88 8274.55 -2414.92 -1740.5 8985.1 -2178.86 -1745.55 8514.55 -2343.18 -1744.6 8762.99 -2260.73 -1723.88 7829.54 -2574.04 -1713.08 9183.66 -2168.19 -1726.96 7954.17 -2546.14 -1717.37 9079.78 -2209.16 -1730.16 8157.81 -2497.06 -1723.32 8902.15 -2274.54 -1731.07 8408.71 -2430.18 -1728.56 8668.95 -2352.45 -1494.28 8812.11 -1830.62 -1500.82 9664.65 -1333.39 -1500.14 8895.13 -1790.57 -1505.06 9603.92 -1377.67 -1507.49 9029.05 -1723.1 -1510.31 9497.85 -1450.41 -1512.71 9190.92 -1636.17 -1513.6 9354.85 -1540.92 -1694.51 8326.32 -2300.58 -1704.08 9460.03 -1822.74 -1700.22 8433.07 -2264.7 -1707.59 9375.55 -1867.98 -1707.44 8606.58 -2203.16 -1711.83 9229.9 -1941.2 -1712.79 8818.72 -2121.88 -1714.22 9036.66 -2030.39 -1512.7 8791.26 -1869.93 -1519.63 9664.33 -1370.67 -1518.6 8876.14 -1829.89 -1523.85 9601.97 -1415.33 -1526.01 9013.09 -1762.38 -1529.05 9493.16 -1488.6 -1531.31 9178.72 -1675.26 -1532.27 9346.59 -1579.62 -1678.13 8401.53 -2261.53 -1688.82 9505.36 -1776.83 -1684 8505.92 -2224.82 -1692.31 9423.55 -1822.41 -1691.46 8675.41 -2162 -1696.49 9282.29 -1896.29 -1697.08 8882.33 -2079.29 -1698.73 9094.52 -1986.49 -1542.46 8752.45 -1935.88 -1550.41 9660.11 -1434.29 -1548.44 8840.41 -1895.96 -1554.52 9594.97 -1479.48 -1555.97 8982.42 -1828.54 -1559.57 9481.47 -1553.5 -1561.44 9154.36 -1741.28 -1562.6 9328.86 -1645.21 -1651.05 8506.12 -2195.6 -1662.48 9563.97 -1702.38 -1657.08 8606.8 -2157.78 -1666.02 9486.2 -1748.28 -1664.78 8770.03 -2093.26 -1670.23 9351.62 -1822.87 -1670.63 8968.87 -2008.7 -1672.43 9172.22 -1914.26 -1578.82 8692.66 -2020.16 -1588.33 9645.65 -1517.84 -1584.88 8784.57 -1980.61 -1592.26 9576.81 -1563.53 -1592.56 8933.12 -1913.61 -1597.01 9457.07 -1638.2 -1598.27 9113.26 -1826.6 -1599.72 9296.46 -1730.4 -1616.6 8609.18 -2111.14 -1627.55 9614.13 -1611.45 -1622.69 8705.5 -2072.29 -1631.26 9540.92 -1657.42 -1630.47 8861.4 -2006.27 -1635.69 9413.9 -1732.32 -1636.34 9050.85 -1920.15 -1638.07 9244.03 -1824.46 -1102.83 11109.7 -1492.35 -483.957 12021.2 -1199.24 -1059.17 11186.6 -1465.55 -544.071 11943.5 -1222.39 -982.526 11314.7 -1421.9 -641.358 11814.5 -1261.49 -878.669 11476.9 -1368.16 -759.262 11651.5 -1312.17 -426.843 10831.9 -2263.97 413.834 12159.9 -2156.9 -360.27 10943.4 -2250.36 339.533 12046.2 -2161.42 -247.052 11129.3 -2229.59 216.527 11857.6 -2170.84 -99.7557 11365.3 -2206.63 62.5128 11619.7 -2186.1 -1055.06 11087.8 -1561.64 -434.675 12025.6 -1281.33 -1011.11 11166.7 -1535.9 -494.758 11945.4 -1303.37 -934.045 11298.2 -1494.03 -592.059 11812.4 -1340.65 -829.785 11464.9 -1442.55 -710.094 11644.6 -1389.02 -458.866 10824.1 -2223.45 343.574 12115.4 -2102.69 -395.802 10932.3 -2209.1 272.197 12004.5 -2108.87 -288.328 11112.7 -2186.97 154.204 11820.8 -2120.81 -148.122 11341.9 -2161.98 6.78437 11589.2 -2138.89 -957.596 11040.1 -1684.84 -330.052 12027.1 -1428.68 -912.57 11122.9 -1661.07 -390.265 11942.5 -1448.61 -833.922 11260.8 -1622.5 -487.991 11802.1 -1482.39 -727.989 11436.1 -1575.27 -606.917 11625.1 -1526.38 -533.294 10837.3 -2140.62 212.944 12064.4 -1994.47 -475.546 10939.9 -2124.77 145.679 11958.8 -2003.56 -376.722 11110.9 -2099.9 34.833 11783.8 -2019.98 -247.091 11328.5 -2071.02 -103.026 11563.5 -2043.14 -814.386 10966.9 -1845.98 -165.82 12025.5 -1624.54 -766.761 11055.4 -1824.9 -226.924 11934.4 -1641.29 -684.104 11202.9 -1790.92 -326.533 11783.5 -1669.88 -573.675 11390.6 -1749.69 -448.522 11593.4 -1707.46 -658.499 10888.9 -2009.94 31.2201 12033.1 -1828.15 -606.396 10984.4 -1991.73 -32.2496 11934.5 -1841.01 -516.656 11143.8 -1962.71 -136.313 11771.2 -1863.37 -397.944 11346.5 -1928.11 -264.81 11565.7 -1893.46 -1136.97 9437.32 -2488.01 -444.775 10782.7 -2289.86 -1086.64 9553.14 -2468.54 -511.18 10669.6 -2304.09 -999.259 9744.67 -2437.31 -618.662 10481.4 -2328.78 -882.318 9985.54 -2399.78 -749.24 10242.8 -2361.88 3076.1 4454.42 -3668.88 4059.64 7338.06 -5220.29 3177.18 4673.38 -3809.43 3996.06 7069.85 -5097.96 3338.69 5048.67 -4039.49 3881.28 6632.98 -4890.69 3530.81 5543.04 -4324.12 3720.77 6096.85 -4621.51 -1085.5 9347.74 -2544.92 -359.372 10734.7 -2367.6 -1030.92 9467.24 -2526.72 -427.571 10618 -2379.71 -937.145 9664.72 -2497.86 -538.36 10423.9 -2400.97 -813.206 9912.95 -2463.74 -673.829 10178 -2429.93 2530.47 5124.71 -3571.96 3404.62 7686.58 -4849.72 2619.11 5318.84 -3686.74 3346.89 7447.44 -4748.13 2761.16 5651.59 -3875.03 3243.36 7058.43 -4576.3 2930.88 6090.08 -4108.72 3099.69 6581.77 -4353.76 -796.441 9026.77 -2686.99 -55.7549 10483.3 -2604.03 -737.856 9150.54 -2676.63 -122.582 10358.9 -2608.18 -638.621 9355.73 -2660.94 -232.095 10152.8 -2616.09 -509.861 9614.85 -2643.66 -367.811 9893.07 -2628.08 1690.04 6162.58 -3402.91 2451.43 8312.58 -4284.17 1764.5 6326.71 -3480.58 2398.18 8112.4 -4212.88 1884.71 6607.2 -3608.67 2304.4 7786.82 -4092.72 2030.04 6975.65 -3768.78 2176.93 7387.79 -3937.97 -164.243 8343.87 -2913.97 557.389 9921.63 -3046.34 -103.179 8473.28 -2922.74 496.459 9782.41 -3033.25 -1.45099 8689.81 -2938.53 394.903 9553.57 -3012 127.519 8966.74 -2960.52 266.052 9268.27 -2986.3 727.788 7324.53 -3172.75 1438.51 9125.49 -3642.98 792.832 7465.96 -3212.34 1383.89 8960.97 -3603.43 899.317 7705.53 -3278.5 1290.4 8692.49 -3537.28 1030.86 8016.87 -3362.62 1167.64 8361.54 -3453.14 -1522.88 10181.1 -1812.65 -1123.32 11072.4 -1505.46 -1497.41 10255.6 -1787.54 -1164.7 10995.7 -1532.44 -1451.27 10379.8 -1745.41 -1230.78 10868.5 -1576.91 -1386.4 10537.8 -1691.39 -1309.2 10708.5 -1632.53 -1126.32 9454.37 -2469.67 -458.653 10777.9 -2270.86 -1078.63 9567.96 -2450.49 -523.348 10666.4 -2285.42 -995.34 9755.99 -2419.58 -627.913 10481 -2310.58 -883.105 9992.77 -2382.16 -754.591 10245.9 -2344.09 -1472.87 10138.7 -1867.55 -1075.71 11049.5 -1574.24 -1448.5 10214.3 -1843.89 -1117.42 10970.8 -1600.17 -1403.69 10340.7 -1803.99 -1183.97 10840.5 -1642.91 -1339.72 10501.9 -1752.57 -1262.72 10676.5 -1696.27 -1107.46 9494.34 -2430.17 -488.963 10771.7 -2230.68 -1064.93 9603.22 -2411.65 -550.108 10663.7 -2245.87 -989.687 9783.85 -2381.48 -648.676 10484 -2271.9 -886.786 10012 -2344.44 -767.427 10256.5 -2306.14 -1380.02 10048 -1966.62 -978.789 11000 -1696.5 -1356.57 10126.5 -1945.14 -1021.62 10917.5 -1720.52 -1312.59 10258.1 -1908.74 -1089.92 10780.8 -1760.12 -1248.59 10426.4 -1861.5 -1170.47 10609.1 -1809.52 -1107.74 9587.1 -2353.2 -560.789 10787.7 -2148.54 -1072.47 9688.27 -2335.33 -616.562 10685.3 -2165.07 -1008.64 9856.73 -2305.72 -706.124 10515.3 -2193.02 -919.137 10070.4 -2268.52 -813.13 10300.5 -2229.1 -1261.57 9904.81 -2098.96 -836.884 10924.1 -1856.35 -1237.16 9988.9 -2079.68 -882.386 10835.9 -1877.76 -1191.03 10129.8 -2046.92 -954.998 10689.7 -1913.2 -1123.47 10310.1 -2004.37 -1040.61 10505.8 -1957.57 -1158.85 9735.07 -2237.79 -683.218 10842.7 -2018.95 -1130.33 9827.23 -2219.81 -733.278 10747.5 -2037.65 -1077.31 9981.3 -2189.52 -813.362 10589.4 -2068.86 -1000.85 10177.7 -2150.62 -908.247 10390.3 -2108.39 -1277.88 10839.6 -459.219 -964.124 11341.3 -94.8332 -1260.27 10884.3 -429.182 -999.146 11300.9 -126.692 -1227.05 10957.8 -378.923 -1054.11 11232.9 -179.223 -1178.21 11049.1 -314.713 -1117.69 11145.2 -244.972 -1323.09 11080.7 -855.744 -852.517 11736.1 -481.153 -1292.47 11137.9 -823.526 -900.82 11682.1 -512.658 -1237.4 11232.2 -770.223 -978.003 11591.6 -565.069 -1160.59 11350.4 -703.158 -1069.81 11476 -631.53 -1290.98 10861.9 -486.065 -966.235 11374 -118.676 -1272.55 10907.5 -455.694 -1002.29 11332.7 -150.722 -1237.9 10982.4 -404.918 -1058.93 11263.2 -203.589 -1187.19 11075.6 -340.115 -1124.56 11173.6 -269.806 -1331.74 11065.5 -812.549 -878.502 11704.2 -435.614 -1302.66 11121.3 -780.282 -925.454 11651.7 -467.463 -1250.13 11213.4 -726.834 -1000.32 11563.6 -520.387 -1176.51 11328.7 -659.473 -1089.09 11451.1 -587.392 -1309.85 10899.2 -532.593 -966.469 11429.3 -160.771 -1289.98 10946.3 -501.703 -1004.23 11386.4 -193.068 -1252.88 11023.6 -450.129 -1063.67 11314.3 -246.396 -1198.95 11120 -384.429 -1132.74 11221.5 -313.284 -1339.37 11036.4 -745.952 -912.538 11649.3 -366.958 -1312.6 11090.1 -713.74 -957.392 11599.1 -399.203 -1263.91 11178.7 -660.285 -1028.68 11514.8 -452.697 -1195.11 11289.5 -592.744 -1112.8 11406.9 -520.263 -1327.92 10946.1 -595.579 -959.811 11500.6 -219.385 -1306.08 10995.1 -564.115 -999.763 11455.6 -251.869 -1265.65 11075.8 -511.679 -1062.82 11379.9 -305.577 -1207.39 11176.4 -445.042 -1136.41 11282.6 -373.074 -1338.84 10994.6 -669.582 -941.907 11577.9 -290.681 -1314.62 11046 -637.64 -984.312 11530.3 -323.165 -1270.19 11130.6 -584.519 -1051.47 11450.4 -376.96 -1206.8 11236.2 -517.204 -1130.26 11347.9 -444.731 -1564.59 10359.4 -1256 -1332.34 11059.2 -893.138 -1554.36 10420.2 -1226.34 -1361.11 11001 -925.201 -1533.29 10520.6 -1176.64 -1405.33 10903.9 -977.902 -1499.55 10646.4 -1112.98 -1454.77 10780.2 -1043.59 -1544.47 10198.2 -1787.61 -1142.97 11081.4 -1473.87 -1518.4 10272.3 -1761.79 -1184.26 11005.5 -1501.32 -1471.49 10395.7 -1718.56 -1250.22 10879.8 -1546.58 -1406.04 10552.4 -1663.29 -1328.6 10721.5 -1603.23 -1578.54 10354.4 -1302.39 -1322.83 11071.2 -937.771 -1565.71 10416.8 -1272.27 -1353.19 11011.7 -969.75 -1540.64 10519.8 -1221.96 -1400.14 10912.3 -1022.38 -1502.36 10648.7 -1157.79 -1453.25 10785.8 -1088.12 -1580.51 10228.8 -1737.88 -1178.02 11095.7 -1412.17 -1553.61 10302 -1710.77 -1218.99 11021.6 -1440.48 -1505.76 10423.8 -1665.54 -1284.45 10898.7 -1487.19 -1439.77 10577.9 -1608 -1362.38 10743.8 -1545.74 -1601.41 10344.7 -1376.87 -1308.45 11088.5 -1011.31 -1584.47 10409.6 -1346.26 -1341.3 11026.6 -1043.07 -1553.08 10516.5 -1295.35 -1392.56 10923.5 -1095.4 -1507.57 10650.2 -1230.75 -1451.52 10792.3 -1160.97 -1617.92 10268.3 -1659.64 -1222.91 11109.4 -1318.3 -1590.95 10340.1 -1630.87 -1262.95 11038 -1347.76 -1543.41 10459.1 -1583.09 -1326.8 10919.5 -1396.39 -1478.46 10609.2 -1522.61 -1402.8 10769.9 -1457.45 -1624.76 10328.6 -1468.28 -1289.35 11104.6 -1105.33 -1603.26 10396.1 -1437.58 -1325.04 11039.8 -1136.62 -1564.75 10507.4 -1386.67 -1381.25 10931.9 -1188.26 -1511.01 10646.6 -1322.32 -1446.97 10794.8 -1253.1 -1634.08 10303.4 -1565.92 -1261.82 11113 -1211.1 -1608.91 10373.3 -1535.83 -1300.06 11044.8 -1241.62 -1564.5 10488.7 -1485.96 -1360.76 10931.6 -1292.01 -1503.7 10633.6 -1423 -1432.59 10788.2 -1355.33 -1393.22 10280.6 -785.979 -1285.78 10817.8 -473.707 -1390.54 10326.8 -762.467 -1301.18 10772.7 -503.207 -1383.37 10403.3 -722.166 -1324.24 10697.6 -550.98 -1369.53 10499.5 -668.997 -1348.84 10602.3 -609.208 -1558.04 10361.6 -1233.09 -1337.23 11052.9 -871.386 -1549.08 10421.6 -1203.7 -1365.21 10995.4 -903.477 -1529.95 10520.6 -1154.36 -1408.09 10899.4 -956.188 -1498.41 10644.9 -1091.01 -1455.74 10777.1 -1021.81 -1410.42 10293 -816.9 -1299.27 10839.7 -500.721 -1408.15 10339.9 -793.13 -1315.46 10793.7 -530.573 -1401.27 10417.6 -752.35 -1339.73 10717.2 -578.944 -1387.18 10515.4 -698.504 -1365.61 10620.1 -637.929 -1544.83 10364.1 -1187 -1345.14 11038.3 -828.206 -1538.12 10422.4 -1158.18 -1371.57 10982.1 -860.302 -1522.48 10518.8 -1109.63 -1411.88 10888.3 -912.948 -1494.93 10639.9 -1047.03 -1456.15 10769 -978.329 -1436.7 10312.5 -870.83 -1318.82 10876.3 -547.511 -1434.98 10360.6 -846.474 -1336.37 10828.8 -577.924 -1428.43 10440.6 -804.687 -1362.71 10749.8 -627.269 -1413.83 10541.5 -749.531 -1390.73 10649.5 -687.542 -1523.44 10362.4 -1114.3 -1351.66 11010.2 -761.564 -1519.43 10418.1 -1086.48 -1375.82 10956.1 -793.534 -1508.04 10510.4 -1039.35 -1412.4 10865.7 -845.844 -1485.56 10626.7 -978.153 -1451.97 10750.8 -910.549 -1466.79 10334.1 -943.851 -1337.84 10922.2 -610.792 -1465.32 10384.3 -918.525 -1357.25 10872.7 -641.845 -1458.6 10467.7 -875.169 -1386.42 10790.3 -692.347 -1442.82 10572.9 -818.12 -1417.42 10685.7 -754.234 -1496.61 10352.3 -1028.68 -1349.9 10969.6 -685.045 -1494.49 10405.1 -1002.11 -1371.59 10917.8 -716.659 -1486.3 10492.8 -956.84 -1404.25 10831.5 -768.23 -1468.01 10603.4 -897.619 -1439.14 10721.7 -831.714 -365.212 11809.1 286.859 401.523 12156.6 550.911 -307.615 11841.7 314.122 330.682 12130.7 533.215 -208.183 11894.8 357.36 214.695 12086.1 501.915 -76.3721 11959.8 408.447 71.6603 12026.7 458.909 -96.7726 12397.5 -123.457 767.621 12968.2 101.498 -28.6548 12447 -99.2323 690.829 12921.3 87.0939 87.3809 12528.9 -61.2723 563.953 12842.5 61.395 238.589 12632 -17.1656 405.396 12741.6 25.5929 -353.232 11854.6 264.201 425.657 12216.2 527.505 -294.527 11888.2 291.464 353.886 12189.1 509.918 -193.276 11943.2 334.669 236.303 12142.2 478.787 -59.212 12010.6 385.662 91.1657 12080.3 435.968 -136.243 12344 -71.4538 724.28 12889.3 160.116 -68.8168 12391.6 -46.6277 647.465 12844.8 145.227 46.2227 12470.2 -7.67121 520.69 12769.9 118.676 196.441 12568.9 37.6778 362.515 12673.7 81.7283 -330.766 11932.1 223.114 466.781 12318.7 484.35 -270.322 11967.7 250.298 393.619 12289.2 467.003 -166.232 12025.9 293.319 273.629 12238.6 436.256 -28.6804 12097.6 343.999 125.296 12172 393.886 -192.269 12256.1 5.54579 659.617 12762.5 246.422 -126.079 12300.7 31.1906 583.041 12721.7 230.826 -12.8834 12374.3 71.5156 456.861 12652.7 203.045 135.374 12466.4 118.592 299.8 12563.8 164.463 -296.276 12033.8 163.79 522.197 12454.9 420.756 -233.796 12072 190.711 447.554 12422.2 403.825 -126.416 12134.7 233.239 324.968 12366.3 373.766 15.1161 12212.2 283.204 173.124 12293.3 332.241 -249.018 12147.2 88.7466 588.532 12609.7 338.741 -184.534 12188.5 115.147 512.677 12573.1 322.415 -73.975 12256.4 156.758 387.902 12510.8 293.378 71.3049 12341.1 205.494 232.982 12430 253.155 -814.219 11777.6 -489.24 -108.779 12399 -162.18 -762.814 11832 -458.435 -175.529 12348.2 -187.2 -673.312 11921.8 -408.626 -284.217 12262.8 -229.782 -553.376 12034.2 -347.958 -417.166 12153.4 -285.552 -474.45 12054.9 -1150.39 336.832 12983.7 -931.858 -412.255 12131.7 -1127.66 263.281 12903 -946.879 -305.429 12260.2 -1091.86 142.252 12769.6 -973.029 -164.779 12424.3 -1049.86 -8.03206 12602.2 -1008.48 -785.461 11808.8 -537.472 -67.2779 12451.7 -217.574 -732.723 11864.8 -507.147 -134.823 12398.8 -241.897 -641.098 11957.3 -458.203 -244.965 12310.2 -283.341 -518.648 12073.4 -398.733 -379.973 12196.7 -337.726 -512.267 12043.7 -1077.1 298.715 12941.4 -847.445 -450.205 12118.2 -1053.42 225.059 12863.6 -863.392 -343.564 12242.7 -1016.05 103.917 12735 -891.095 -203.079 12401.5 -972.049 -46.4057 12573.5 -928.53 -740.719 11858.5 -617.95 -1.43945 12539 -310.901 -685.829 11917.2 -588.499 -70.3555 12482.5 -333.976 -590.755 12014.5 -541.117 -182.971 12388 -373.389 -464.191 12136.9 -483.803 -321.435 12267.4 -425.299 -567.561 12017.2 -966.816 236.949 12865.6 -719.498 -506.219 12088.1 -941.715 163.626 12792.7 -736.982 -400.721 12206.4 -901.929 43.1422 12671.8 -767.238 -261.573 12356.9 -854.813 -106.173 12519.5 -807.886 -686.88 11917 -722.667 77.8447 12648.4 -433.436 -629.459 11979.5 -694.457 7.21187 12586.9 -454.799 -530.307 12083.2 -649.274 -108.466 12484.4 -491.42 -398.832 12214.1 -594.965 -251.153 12354.3 -539.923 -628.089 11973.3 -842.798 160.333 12763.2 -574.47 -568.346 12040 -816.099 88.0745 12696 -593.865 -465.436 12151 -773.56 -30.4911 12584.3 -627.268 -329.41 12291.7 -722.81 -177.138 12443.1 -671.82 -946.618 11360.7 -79.342 -392.495 11793.1 273.324 -909.024 11400.3 -47.609 -447.807 11759.7 245.127 -842.229 11465.1 4.34524 -536.736 11702.6 197.584 -750.445 11545 68.7179 -643.521 11628 136.198 -828.607 11762.2 -465.911 -129.296 12373.5 -135.562 -777.852 11815.8 -434.887 -195.672 12323.6 -160.903 -689.381 11904.2 -384.683 -303.672 12239.8 -204.009 -570.661 12014.9 -323.465 -435.637 12132.2 -260.416 -948.223 11393.8 -103.097 -381.056 11838.1 250.66 -909.573 11434.4 -71.1953 -437.487 11803.6 222.442 -840.987 11500.8 -18.9936 -528.287 11744.8 174.837 -746.889 11582.7 45.6346 -637.44 11668 113.321 -855.234 11729.6 -420.195 -168.406 12320.9 -83.8507 -805.774 11781.6 -388.786 -233.994 12272.9 -109.788 -719.372 11867.5 -337.876 -340.559 12192.1 -153.862 -603.106 11974.8 -275.664 -470.498 12088.2 -211.442 -947.622 11449.9 -145.078 -359.44 11914.7 209.603 -907.233 11492.1 -112.961 -417.64 11878.4 181.43 -835.718 11561.3 -60.4632 -511.408 11816.5 133.855 -737.862 11646.7 4.43518 -624.346 11736 72.2888 -890.27 11673.5 -351.333 -223.799 12234.4 -7.24523 -842.84 11723.3 -319.463 -288.019 12189.2 -33.9854 -759.707 11805.1 -267.688 -392.14 12113 -79.3536 -647.374 11907.2 -204.221 -518.705 12014.8 -138.48 -939.9 11522.3 -203.612 -325.952 12015.2 150.395 -897.305 11566.8 -171.361 -386.244 11976.3 122.445 -822.106 11639.6 -118.729 -483.559 11910.3 75.181 -719.58 11730 -53.8096 -601.077 11824.6 13.8966 -920.812 11600.9 -274.923 -279.689 12127 75.5955 -875.781 11647.9 -242.74 -342.079 12085.1 48.1282 -796.558 11725.2 -190.33 -442.996 12014.1 1.60622 -689.013 11821.3 -125.873 -565.25 11922.3 -58.8637 -945.265 10358.4 -17.2589 -820.246 10685.9 255.148 -941.052 10388 4.44915 -837.033 10659.9 230.607 -931.323 10436.5 41.0976 -862.457 10616 190.423 -914.252 10496.4 88.4863 -890.156 10559.1 140.64 -1109.49 10566.6 -182.879 -908.594 10964 133.172 -1099.56 10602.5 -157.491 -932.603 10932.4 104.894 -1080.05 10661.2 -114.722 -969.679 10879 58.5173 -1050.1 10733.8 -59.5766 -1011.52 10809.9 0.928031 -959.575 10374.1 -29.0787 -829.251 10706.7 246.786 -954.944 10404.2 -7.06817 -846.584 10680.3 221.954 -944.53 10453.4 30.0764 -872.85 10635.7 181.288 -926.59 10514.3 78.0841 -901.523 10577.9 130.895 -1095.42 10546.7 -166.591 -902.078 10937.4 145.412 -1085.99 10582 -141.55 -925.365 10906.3 117.468 -1067.4 10639.7 -99.3591 -961.253 10853.8 71.6524 -1038.73 10711.2 -44.9434 -1001.63 10785.9 14.7818 -983.018 10400.9 -49.6429 -843.402 10742.4 232.034 -977.646 10431.8 -27.1347 -861.655 10715.3 206.705 -966.013 10482.3 10.8315 -889.362 10669.4 165.216 -946.521 10544.8 59.8723 -919.735 10610.2 113.79 -1072.31 10514.7 -140.447 -891.059 10894.5 165.012 -1063.73 10549 -115.959 -913.209 10864.3 137.62 -1046.64 10605.2 -74.6886 -947.227 10813.3 92.7253 -1020.03 10674.6 -21.443 -985.301 10747.3 37.0244 -1012.24 10436.2 -77.2968 -860.028 10789.5 211.881 -1005.86 10468.1 -54.1599 -879.479 10761.4 185.9 -992.561 10520.4 -15.1486 -909.1 10714 143.338 -970.93 10585.1 35.2176 -941.778 10652.6 90.5667 -1043.33 10475.9 -109.013 -876.572 10842.6 188.452 -1035.82 10509 -85.1895 -897.377 10813.4 161.749 -1020.6 10563.3 -45.0311 -929.191 10764.2 117.996 -996.479 10630.4 6.79752 -964.552 10700.5 63.7319 -1148.73 10120.7 -471.073 -1120.78 10558.7 -203.224 -1152.05 10158.8 -450.519 -1129.05 10522.2 -228.247 -1155.29 10221.6 -415.508 -1140.28 10461.3 -268.834 -1155.28 10300.3 -369.662 -1150.08 10384 -318.455 -1384.48 10274.4 -771.388 -1278.85 10807.2 -460.886 -1381.6 10320.3 -747.974 -1293.87 10762.6 -490.212 -1374.29 10396.3 -707.869 -1316.34 10688.1 -537.695 -1360.57 10491.8 -654.995 -1340.33 10593.7 -595.564 -1169.66 10133.3 -492.779 -1134.88 10578.9 -220.666 -1172.08 10172.1 -471.824 -1143.6 10541.7 -246.045 -1174.02 10236.1 -436.177 -1155.55 10479.9 -287.214 -1172.67 10316.2 -389.565 -1166.3 10401.3 -337.564 -1366.05 10261.4 -741.899 -1264.79 10785.5 -434.937 -1362.92 10306.8 -718.672 -1279.07 10741.6 -463.901 -1355.54 10381.7 -678.945 -1300.36 10668.6 -510.788 -1342.28 10475.7 -626.648 -1323.04 10575.8 -567.932 -1204.28 10154.5 -530.329 -1157.56 10612.8 -251.596 -1205.22 10194.6 -508.81 -1167.06 10574.7 -277.576 -1204.98 10260.5 -472.242 -1180.31 10511.2 -319.71 -1201.29 10343 -424.48 -1192.79 10430.4 -371.241 -1334.49 10239.7 -694.643 -1242.25 10749.5 -393.363 -1331.44 10284 -671.709 -1255.38 10706.9 -421.719 -1324.59 10357.1 -632.57 -1274.8 10636.1 -467.624 -1312.58 10448.7 -581.178 -1295.3 10546 -523.596 -1247.61 10182 -580.529 -1185.32 10656.6 -294.077 -1246.82 10223.5 -558.445 -1195.88 10617.1 -320.826 -1243.93 10291.9 -520.911 -1210.94 10551.3 -364.183 -1237.23 10377.2 -471.868 -1225.86 10467.7 -417.168 -1293.21 10211.8 -637.877 -1214.64 10704.4 -343.66 -1290.95 10254.9 -615.319 -1226.46 10663.3 -371.241 -1285.64 10325.7 -576.916 -1243.67 10595 -415.913 -1275.94 10414.2 -526.634 -1261.42 10508.2 -470.439 -930.337 9986.09 -244.986 -946.87 10343.9 -27.6775 -935.831 10017 -229.198 -949.574 10314 -48.8083 -943.275 10068.2 -201.879 -952.362 10264.1 -82.7934 -949.694 10132.4 -165.386 -952.871 10200.8 -123.799 -1138.6 10114.7 -460.784 -1113.82 10549.1 -195.082 -1142.35 10152.4 -440.441 -1121.88 10512.8 -219.934 -1146.2 10214.7 -405.763 -1132.76 10452.4 -260.239 -1146.8 10292.7 -360.31 -1142.13 10375.7 -309.5 -947.308 9995.9 -260.385 -961.385 10359.4 -39.645 -952.979 10027.3 -244.339 -964.514 10328.9 -61.0819 -960.495 10079.1 -216.572 -967.986 10278.3 -95.5768 -966.669 10144.3 -179.48 -969.256 10213.9 -137.222 -1118.36 10102.6 -439.872 -1099.52 10529.5 -178.626 -1122.86 10139.5 -419.973 -1107.13 10493.8 -203.133 -1127.79 10200.6 -385.993 -1117.33 10434.4 -242.863 -1129.51 10277.2 -341.364 -1125.84 10358.8 -291.384 -975.13 10012.6 -287.289 -985.189 10385.8 -60.4516 -981.061 10044.7 -270.737 -989.05 10354.5 -82.394 -988.683 10097.9 -242.115 -993.659 10302.4 -117.743 -994.481 10164.8 -203.926 -996.149 10236.2 -160.484 -1086.54 10082.9 -406.067 -1076.01 10497.9 -152.215 -1091.94 10118.7 -386.912 -1082.86 10463.2 -176.168 -1098.17 10177.9 -354.103 -1091.91 10405.3 -214.964 -1101.35 10252.3 -310.857 -1099.09 10331.7 -262.262 -1010.24 10034.5 -323.561 -1014.89 10420.5 -88.4107 -1016.35 10067.7 -306.251 -1019.71 10388.2 -110.993 -1023.96 10122.6 -276.386 -1025.76 10334.2 -147.437 -1029.22 10191.8 -236.659 -1029.75 10265.7 -191.616 -1048.79 10059.1 -365.109 -1046.52 10459.6 -120.46 -1054.77 10093.5 -346.876 -1052.39 10426.1 -143.741 -1061.97 10150.5 -315.528 -1059.99 10370.1 -181.386 -1066.39 10222.3 -274.016 -1065.6 10299 -227.161 -625.968 10084.9 183.878 -604.096 10302.2 384.182 -628.4 10104.7 199.635 -610.404 10285.1 365.934 -630.726 10137.1 226.328 -618.978 10256 336.132 -630.575 10176.9 261.001 -626.504 10218.4 299.352 -773.447 10189.6 108.156 -709.713 10456.8 338.579 -772.845 10214 126.117 -719.975 10435.8 317.406 -769.872 10253.8 156.611 -735 10400.1 282.903 -762.6 10302.8 196.347 -750.429 10353.9 240.453 -638.241 10091.9 178.906 -613.828 10313.3 381.334 -640.472 10112.1 194.818 -620.436 10295.8 362.872 -642.484 10145.1 221.774 -629.446 10266.2 332.731 -641.948 10185.7 256.798 -637.439 10227.9 295.55 -760.304 10178.8 115.996 -701.216 10441.5 343.411 -759.973 10202.8 133.718 -711.055 10420.8 322.504 -757.538 10241.9 163.806 -725.352 10385.7 288.439 -751.066 10290.1 203.013 -739.852 10340.3 246.539 -658.593 10104.4 170.028 -629.569 10332.4 376.159 -660.452 10125.2 186.203 -636.672 10314.4 357.32 -661.87 10159.2 213.613 -646.428 10283.9 326.583 -660.594 10201 249.245 -655.262 10244.5 288.698 -738.878 10161.7 128.454 -687.025 10417 351.068 -739.011 10185.1 145.809 -696.219 10396.8 330.601 -737.452 10223.1 175.267 -709.41 10362.8 297.257 -732.238 10269.9 213.645 -722.494 10318.7 256.246 -684.393 10121.5 157.718 -648.82 10358.1 368.842 -685.726 10143.1 174.244 -656.558 10339.4 349.496 -686.275 10178.4 202.263 -667.318 10307.8 317.955 -683.897 10221.8 238.716 -677.346 10266.9 279.118 -712.36 10141.5 143.19 -668.83 10387.6 360.066 -713.082 10164 160.123 -677.288 10368.2 340.149 -712.583 10200.7 188.853 -689.234 10335.3 307.694 -708.824 10245.8 226.262 -700.736 10292.8 267.762 -730.721 9888.14 -87.4853 -779.912 10183 95.6087 -738.283 9913.6 -73.9134 -779.398 10158.2 78.041 -749.546 9955.63 -50.5728 -776.919 10116.9 49.7137 -761.397 10008.4 -19.6255 -771.01 10064.7 15.3902 -922.029 9981.4 -237.738 -939.789 10336.6 -22.0233 -927.441 10012.2 -222.06 -942.293 10306.9 -43.0049 -934.857 10063 -194.939 -944.752 10257.4 -76.7439 -941.409 10126.7 -158.719 -944.886 10194.6 -117.445 -746.188 9894.41 -98.4179 -793.258 10194.1 87.2198 -753.452 9920.35 -84.6495 -792.938 10168.9 69.4025 -764.318 9963.15 -60.9799 -790.724 10127.1 40.6798 -775.795 10016.8 -29.6071 -785.097 10074 5.88553 -904.981 9971.92 -223.079 -925.382 10321.6 -10.5535 -910.288 10002.3 -207.614 -927.501 10292.4 -31.226 -917.728 10052.4 -180.878 -929.321 10243.7 -64.46 -924.606 10115.1 -145.194 -928.708 10181.9 -104.544 -772.187 9905.53 -117.303 -815.302 10213.4 72.5836 -778.943 9932.27 -103.234 -815.307 10187.6 54.3276 -789.095 9976.34 -79.0475 -813.573 10144.6 24.9149 -799.849 10031.5 -46.9822 -808.509 10090.2 -10.6888 -877.005 9956.79 -199.546 -902.04 10297.6 7.93454 -882.327 9986.46 -184.399 -903.6 10269.1 -12.2239 -890.027 10035.3 -158.247 -904.475 10221.7 -44.6303 -897.579 10096.5 -123.389 -902.72 10161.6 -83.7227 -805.626 9920.84 -142.497 -843.152 10239.2 52.8658 -811.767 9948.57 -128.078 -843.591 10212.5 34.0186 -820.994 9994.22 -103.267 -842.556 10168.2 3.68054 -830.712 10051.3 -70.3307 -838.373 10112 -32.9972 -842.228 9938.76 -171.206 -873.328 10268.6 30.2646 -847.835 9967.52 -156.42 -874.297 10241 10.749 -856.16 10014.9 -130.936 -874.161 10195.2 -20.6383 -864.722 10074.1 -97.0377 -871.133 10137 -58.5335 -559.67 9838.42 21.1586 -624.523 10075.1 176.33 -567.622 9858.59 32.25 -621.246 10055.1 161.048 -579.739 9892.05 51.5259 -614.965 10021.8 136.543 -593.198 9934.3 77.4213 -605.459 9979.59 107.109 -723.281 9885.23 -82.3026 -773.421 10177.7 99.56 -730.981 9910.44 -68.8308 -772.811 10153.1 82.1089 -742.422 9952.1 -45.6554 -770.208 10112.2 53.9674 -754.433 10004.4 -14.9178 -764.177 10060.3 19.8676 -572.956 9840.62 14.1269 -636.897 10082 171.284 -581.016 9861.17 25.3899 -633.823 10061.6 155.846 -593.213 9895.28 44.9533 -627.851 10027.6 131.074 -606.619 9938.36 71.2132 -618.663 9984.57 101.288 -708.194 9879.47 -71.8343 -760.162 10167.1 107.514 -716.133 9904.2 -58.5728 -759.344 10142.9 90.2936 -727.887 9945.1 -35.7424 -756.472 10102.6 62.5228 -740.186 9996.56 -5.43914 -750.183 10051.5 28.8749 -595.059 9845.01 1.69774 -657.434 10094.2 162.281 -603.277 9866.21 13.2665 -654.722 10073.1 146.579 -615.594 9901.41 33.3361 -649.282 10038 121.352 -628.917 9945.88 60.2293 -640.617 9993.59 90.9685 -683.865 9870.64 -55.1135 -738.532 10150.3 120.148 -692.075 9894.6 -42.2069 -737.345 10126.7 103.284 -704.195 9934.27 -19.956 -733.989 10087.5 76.0949 -716.867 9984.27 9.62596 -727.251 10037.8 43.17 -623.265 9851.85 -15.3269 -683.489 10110.9 149.805 -631.616 9873.9 -3.34201 -681.266 10088.9 133.754 -644.02 9910.51 17.4093 -676.515 10052.5 107.93 -657.219 9956.76 45.145 -668.501 10006.4 76.7603 -654.166 9860.8 -35.1815 -711.745 10130.5 135.083 -662.532 9883.81 -22.7251 -710.063 10107.7 118.63 -674.89 9921.98 -1.20624 -706.049 10069.8 92.1242 -687.88 9970.16 27.473 -698.71 10021.8 60.0694 -434.887 10481.1 620.683 -122.541 10565.3 802.436 -414.909 10491.5 638.915 -154.714 10561.8 789.961 -378.682 10507.6 668.1 -206.161 10554.3 767.955 -327.788 10525.7 703.003 -267.362 10542 737.908 -468.402 10681.6 607.15 -69.8307 10796.4 810.993 -441.325 10695.3 627.383 -109.593 10790.9 796.75 -393.233 10716.4 659.832 -173.518 10779.8 771.769 -327.186 10740.4 698.766 -250.287 10762.6 737.887 -438.192 10496.1 620.425 -119.559 10582.8 803.845 -417.669 10506.9 638.828 -152.323 10579.1 791.257 -380.568 10523.4 668.284 -204.701 10571.3 769.051 -328.597 10541.9 703.508 -267.016 10558.7 738.732 -465.859 10662.5 609.133 -75.752 10774.3 810.886 -439.42 10675.9 629.18 -114.779 10768.9 796.814 -392.445 10696.6 661.324 -177.465 10758.2 772.118 -327.891 10720 699.879 -252.658 10741.6 738.601 -443.436 10521.9 619.609 -113.972 10612.5 805.879 -421.975 10533.1 638.288 -147.725 10608.6 793.083 -383.357 10550.3 668.188 -201.685 10600.4 770.517 -329.51 10569.6 703.949 -265.919 10587.1 739.718 -461.573 10631.6 612.106 -85.0097 10738.7 810.478 -436.188 10644.5 631.856 -122.868 10733.7 796.687 -391.033 10664.5 663.514 -183.591 10723.6 772.46 -328.875 10687 701.461 -256.29 10707.7 739.539 -449.678 10555.9 617.903 -105.796 10651.7 807.933 -426.983 10567.6 636.927 -140.829 10647.4 794.839 -386.343 10585.7 667.387 -196.865 10638.6 771.772 -329.969 10606 703.837 -263.664 10624.5 740.323 -455.983 10594.2 615.272 -95.6718 10695.6 809.527 -431.912 10606.5 634.666 -132.131 10691 796.083 -388.985 10625.6 665.735 -190.519 10681.5 772.432 -329.707 10647 702.946 -260.266 10666.6 740.239 -708.402 10474.6 346.598 -482.377 10684.2 596.106 -696.166 10495.3 368.094 -507.89 10669.4 575.321 -672.729 10528.5 403.704 -547.901 10643.6 540.594 -637.787 10568.5 448.534 -594.068 10608.7 496.36 -807.342 10688.3 270.976 -500.971 10945.3 555.015 -788.873 10713.4 295.523 -534.038 10926.8 531.399 -754.894 10753.7 336.145 -586.239 10894.8 491.936 -706.235 10802.4 387.22 -647.237 10851.7 441.643 -716.648 10490.7 341.567 -485.018 10703.8 593.752 -703.973 10511.7 363.319 -511.114 10688.8 572.762 -679.818 10545.5 399.339 -552.023 10662.5 537.688 -643.963 10586.1 444.666 -599.222 10627 493 -798.453 10667.9 278.729 -500.22 10920.2 559.561 -780.576 10692.6 302.997 -532.548 10902.2 536.207 -747.64 10732.3 343.157 -583.522 10870.8 497.185 -700.39 10780.1 393.651 -642.986 10828.5 447.458 -730.288 10518.3 332.617 -488.882 10737.3 589.345 -716.837 10539.8 354.788 -515.957 10721.9 567.996 -691.406 10574.5 391.488 -558.393 10694.8 532.317 -653.929 10616.2 437.648 -607.384 10658.3 486.847 -784.025 10635.1 291.081 -498.727 10880 566.708 -767.117 10659.1 314.901 -529.884 10862.5 543.786 -735.865 10697.7 354.316 -578.92 10832.1 505.487 -690.857 10744.2 403.873 -635.969 10791.1 456.682 -747.544 10554.5 320.26 -492.914 10781.5 582.916 -733.036 10576.8 342.96 -521.257 10765.4 561.081 -705.852 10612.7 380.524 -565.707 10737.3 524.591 -666.136 10655.9 427.756 -617.115 10699.4 478.084 -766.247 10595.3 305.743 -496.307 10831.3 574.995 -750.527 10618.5 329.015 -526.067 10814.5 552.608 -721.304 10655.7 367.523 -572.813 10785.2 515.2 -678.955 10700.5 415.938 -627.025 10745.8 467.527 -600.714 10310.5 393.104 -444.073 10475.8 611.682 -592.903 10327.1 411.549 -462.372 10464.5 593.077 -577.475 10353.8 442.259 -490.891 10444.6 562.166 -553.782 10385.6 481.199 -523.447 10417.4 523.089 -704.39 10467 348.941 -481.013 10674.8 597.167 -692.36 10487.5 370.312 -506.244 10660.2 576.477 -669.257 10520.4 405.722 -545.825 10634.6 541.914 -634.74 10560 450.313 -591.501 10600 497.896 -610.288 10321.7 390.363 -447.648 10490.7 611.34 -602.117 10338.6 409.029 -466.514 10479.2 592.556 -585.994 10365.8 440.101 -495.986 10458.8 561.334 -561.283 10398.3 479.488 -529.735 10430.8 521.844 -696.092 10451.4 353.645 -478.172 10655.8 599.242 -684.467 10471.6 374.757 -502.816 10641.5 578.744 -662.038 10504 409.754 -541.5 10616.3 544.511 -628.393 10543 453.849 -586.152 10582.3 500.932 -625.775 10341 385.375 -453.354 10516.3 610.386 -617.023 10358.6 404.424 -473.178 10504.3 591.312 -599.788 10386.7 436.12 -504.237 10483 559.581 -573.447 10420.3 476.271 -539.94 10454 519.406 -682.206 10426.6 361.087 -473.389 10625.1 602.36 -671.216 10446.3 381.766 -497.048 10611.3 582.168 -649.871 10477.8 416.072 -534.212 10586.9 548.467 -617.673 10515.7 459.344 -577.122 10553.9 505.602 -644.707 10367.1 378.309 -460.201 10550 608.512 -635.24 10385.3 397.869 -481.261 10537.4 589.077 -616.65 10414.5 430.39 -514.326 10515.1 556.711 -588.337 10449.6 471.534 -552.444 10484.7 515.67 -664.364 10396.9 369.816 -467.17 10588 605.7 -654.125 10415.9 389.949 -489.574 10574.7 585.878 -634.112 10446.3 423.385 -524.777 10551.4 552.828 -603.763 10482.8 465.623 -565.414 10519.6 510.85 737.3 11184.6 899.641 1418.79 11162.8 793.043 796.365 11184.3 898.906 1363.93 11166.9 810.422 894.664 11183.5 894.25 1270.87 11172.5 835.839 1018.67 11181.4 882.268 1150.41 11177.7 861.871 990.531 11666.6 851.49 1755.42 11716 750.368 1057.89 11672.3 851.212 1694.73 11714 767.223 1169.47 11681.3 847.298 1591.45 11709.4 791.815 1309.4 11691.9 836.246 1457.14 11701.8 816.861 756.8 11219.6 898.039 1446.19 11202.3 791.753 816.635 11219.7 897.344 1390.79 11206 809.117 916.183 11219.5 892.748 1296.76 11211 834.505 1041.7 11218.2 880.831 1174.97 11215.4 860.492 966.51 11618.5 858.311 1724.98 11659.8 756.579 1033.21 11623.5 858.005 1664.74 11658.5 773.517 1143.75 11631.4 854.039 1562.24 11655.1 798.23 1282.46 11640.5 842.903 1428.98 11648.9 823.405 789.831 11279.8 894.436 1491.95 11270.3 788.736 850.91 11280.5 893.811 1435.67 11273.4 806.065 952.469 11281.4 889.321 1340.08 11277.2 831.391 1080.43 11281.5 877.522 1216.16 11280.2 857.29 927.862 11542.1 868.408 1675.47 11571 765.722 993.452 11546 868.049 1615.99 11570.7 782.776 1102.25 11552.2 863.985 1514.82 11569.1 807.665 1238.88 11559.2 852.709 1383.34 11565.2 833.035 832.9 11359.8 888.137 1550.47 11361.3 783.291 895.495 11361.4 887.603 1493.1 11363.4 800.557 999.501 11363.8 883.253 1395.62 11365.7 825.779 1130.41 11365.9 871.615 1269.12 11366.7 851.541 881.007 11451.1 879.094 1614.43 11466 775.303 945.173 11453.9 878.655 1555.95 11467 792.475 1051.7 11458.1 874.456 1456.52 11467.3 817.546 1185.63 11462.6 863.003 1327.39 11466 843.124 198.192 11563 742.398 969.566 11687.6 847.531 259.585 11576.7 758.39 901.842 11680.8 845.648 363.966 11598.5 782.023 789.547 11667.8 839.615 499.574 11624 806.719 648.572 11648.3 826.829 424.29 12140.2 569.918 1297.89 12400 675.603 495.844 12164.6 585.994 1222.98 12381 673.545 616.496 12204.4 609.688 1098.13 12347.8 667.339 771.599 12253.2 634.381 940.179 12303.5 654.48 213.502 11604.9 733.878 994.017 11737.6 839.459 275.755 11619.3 749.935 925.612 11730.2 837.553 381.533 11642.2 773.659 812.142 11716 831.481 518.851 11669.1 798.449 669.607 11695 818.637 400.598 12082.5 591.094 1265.5 12326.5 697.375 471.235 12105.7 607.246 1191.16 12308.9 695.311 590.442 12143.4 631.063 1067.33 12278.2 689.068 743.852 12189.5 655.9 910.772 12236.7 676.125 240.323 11676.9 717.338 1035.66 11824.2 823.58 303.987 11692.5 733.487 966.166 11815.4 821.636 412.053 11717.3 757.343 850.81 11799.1 815.499 552.156 11746.7 782.267 705.761 11775.4 802.567 363.352 11991 623.4 1214.01 12210.9 730.305 432.51 12012.2 639.634 1140.62 12195.5 728.243 549.376 12046.8 663.585 1018.47 12168.3 721.972 700.027 12088.7 688.579 864.229 12131.3 708.943 276.895 11772.7 692.062 1090.48 11940.5 798.925 342.329 11789.9 708.294 1019.67 11929.9 796.932 453.249 11817.4 732.266 902.029 11910.4 790.724 596.804 11850.4 757.305 753.912 11883 777.706 319.745 11882.1 659.332 1152.56 12075.1 766.474 387.089 11901.2 675.6 1080.4 12062.1 764.437 501.067 11932.2 699.613 960.391 12039 758.177 648.288 11969.5 724.686 809.079 12006.9 745.118 50.1346 11130.6 804.044 708.735 11184.7 899.443 101.438 11138.7 818.779 649.916 11184.2 898.061 189.214 11150.9 840.542 552.751 11181.4 892.955 304.152 11164 863.224 431.45 11174.8 881.545 190.985 11543 746.161 957.87 11663.8 851.065 251.96 11556.5 762.119 890.483 11657.4 849.192 355.657 11577.8 785.704 778.767 11645 843.179 490.427 11602.6 810.352 638.561 11626.2 830.422 59.7652 11161.2 801.479 727.858 11219.5 897.819 111.884 11169.6 816.335 668.255 11218.7 896.391 201.016 11182.4 838.278 569.773 11215.3 891.197 317.664 11196.2 861.157 446.788 11207.8 879.653 176.51 11502.7 753.526 934.178 11616 857.898 236.628 11515.6 769.409 867.486 11610.3 856.051 338.929 11535.9 792.886 756.968 11599 850.084 471.983 11559.3 817.422 618.342 11581.5 837.397 76.6563 11213.4 796.284 760.278 11279.4 894.181 130.122 11222.5 811.337 699.405 11277.8 892.673 221.486 11236.3 833.577 598.786 11273.4 887.331 340.944 11251.5 856.778 473.055 11264.6 875.564 153.581 11438.3 764.706 896.081 11540.1 868.021 212.303 11450.2 780.448 830.548 11535.4 866.228 312.323 11469 803.716 722.015 11525.8 860.359 442.563 11490.4 828.033 586.004 11510.4 847.817 99.6627 11282.6 788.024 802.601 11358.9 887.836 154.826 11292.5 803.318 740.171 11356.5 886.228 248.995 11307.7 825.92 636.92 11350.5 880.7 371.966 11324.7 849.516 507.794 11339.8 868.657 126.492 11360.9 777.014 849.932 11449.7 878.746 183.485 11371.8 792.552 785.879 11446.2 877.037 280.668 11388.8 815.517 679.873 11438.4 871.32 407.394 11408 839.508 547.166 11425.5 859.003 363.454 10552.4 876.544 862.746 10472.1 769.013 405.509 10546.7 874.904 821.815 10480.7 785.72 476.19 10537.1 869.114 752.531 10494 810.303 566.401 10524.2 856.329 663.262 10509.3 835.805 520.2 10810.9 899.038 1106.03 10750.5 790.6 570.32 10807.3 897.841 1058.48 10757.9 807.934 654.105 10801 892.584 977.894 10768.9 833.32 760.363 10792.1 880.1 873.797 10781 859.425 375.476 10572 878.87 882.207 10493.1 771.405 418.249 10566.5 877.28 840.755 10501.6 788.166 490.096 10557 871.561 770.551 10514.8 812.807 581.726 10544.5 858.837 680.03 10529.8 838.337 505.421 10786.2 897.581 1083.97 10723.8 789.292 554.89 10782.4 896.355 1037.03 10731.3 806.583 637.616 10775.8 891.071 957.452 10742.6 831.905 742.568 10766.5 878.588 854.627 10755 857.949 395.91 10605.4 882.575 914.95 10529 775.135 439.861 10600.1 881.062 872.618 10537.3 791.987 513.624 10591.1 875.446 800.872 10550.2 816.736 607.588 10579 862.806 708.27 10564.8 842.325 481.553 10746.4 894.957 1047.99 10680.8 786.916 529.926 10742.3 893.682 1002.04 10688.6 804.127 610.872 10735.2 888.349 924.113 10700.2 829.336 713.632 10725.3 875.86 823.393 10713.2 855.277 422.633 10649.1 886.966 957.164 10576 779.429 468.052 10644.2 885.539 913.692 10584.2 796.402 544.197 10635.8 880.035 839.97 10596.7 821.297 641.07 10624.4 867.471 744.734 10610.9 846.983 452.509 10698.3 891.297 1003.59 10629 783.537 499.471 10693.8 889.953 958.854 10636.9 800.637 578.125 10686 884.546 882.975 10649 825.696 678.071 10675.4 872.033 784.905 10662.6 851.508 -47.0775 10809.8 817.715 503.151 10824.7 899.754 -5.30234 10814.4 830.752 453.142 10827.4 898.953 66.7583 10821 849.932 370.799 10830 895.037 162.042 10826.9 869.763 268.549 10830.2 885.534 45.6052 11116.1 805.142 699.568 11168.1 900.085 96.5119 11124 819.819 641.134 11167.8 898.726 183.628 11135.9 841.494 544.614 11165.3 893.662 297.731 11148.6 864.08 424.138 11159 882.316 -40.4388 10832.8 817.684 518.068 10850.2 900.96 2.07856 10837.7 830.881 467.395 10852.7 900.113 75.3554 10844.5 850.305 383.933 10855 896.094 172.148 10851 870.406 280.239 10854.7 886.417 36.4568 11086.6 807.249 680.951 11134.6 901.234 86.5501 11094.2 821.803 623.301 11134.6 899.921 172.315 11105.5 843.293 528.095 11132.7 894.946 284.713 11117.5 865.679 409.299 11127.1 883.736 -28.9213 10872.1 817.205 543.508 10893.9 902.475 14.8407 10877.3 830.657 491.716 10896 901.55 90.1593 10884.9 850.471 406.369 10897.7 897.362 189.488 10892.1 871.005 300.245 10896.7 887.402 21.8081 11039.3 810.317 650.901 11081.1 902.656 70.5679 11046.3 824.662 594.517 11081.6 901.421 154.123 11056.8 845.837 501.437 11080.6 896.598 263.74 11067.6 867.877 385.366 11076.1 885.625 -13.4702 10923.8 815.84 576.91 10951.5 903.528 31.8883 10929.6 829.599 523.672 10953.2 902.502 109.831 10938 849.882 435.887 10954 898.102 212.427 10946.3 870.935 326.623 10952 887.797 4.23757 10982.2 813.435 614.382 11016.7 903.591 51.3407 10988.5 827.505 559.543 11017.9 902.457 132.158 10997.9 848.262 469.063 11017.8 897.834 238.343 11007.5 869.841 356.331 11014.6 887.174 -106.628 10566.8 808.257 343.236 10555.2 876.846 -72.9683 10569.3 819.549 301.774 10560.2 876.64 -14.6995 10572.3 836.1 233.763 10566.7 873.915 62.7219 10573.6 853.067 149.744 10571.7 866.303 -50.2147 10798.8 817.662 496.026 10812.5 899.094 -8.79685 10803.3 830.621 446.338 10815.3 898.315 62.6781 10809.7 849.68 364.534 10818.1 894.448 157.235 10815.5 869.378 262.979 10818.5 885.031 -103.351 10584.3 809.718 354.907 10574.7 879.147 -69.0589 10587 821.113 312.711 10579.5 878.887 -9.68456 10590.3 837.815 243.468 10585.7 876.071 69.2135 10592 854.948 157.885 10590.5 868.335 -56.4881 10776.6 817.473 481.566 10787.9 897.654 -15.7927 10780.9 830.269 432.543 10790.9 896.92 54.4924 10786.9 849.079 351.857 10794 893.156 147.564 10792.3 868.502 251.738 10794.9 883.913 -97.2712 10614.2 811.852 374.762 10607.9 882.812 -61.9322 10617.2 823.438 331.364 10612.5 882.465 -0.734172 10620.9 840.428 260.101 10618.2 879.495 80.5888 10623.1 857.871 171.961 10622.3 871.538 -66.3073 10740.8 816.928 458.236 10748.3 895.06 -26.7708 10744.8 829.455 410.331 10751.6 894.403 41.5876 10750.3 847.856 331.52 10755.3 890.806 132.225 10755 866.832 233.801 10756.9 881.848 -88.4654 10653.5 814.047 400.767 10651.5 887.155 -51.7944 10656.8 825.911 355.872 10655.7 886.704 11.7045 10661 843.316 282.105 10660.7 883.535 96.0609 10664 861.209 190.792 10664.1 875.275 -77.6458 10697.6 815.81 429.884 10700.4 891.44 -39.5159 10701.3 828.006 383.416 10704.2 890.881 26.4735 10706.2 845.908 307.014 10708.5 887.493 114.073 10710 864.341 212.36 10711 878.881 1295.31 10376 441.249 1456.46 10343.6 11.9691 1319.79 10369.9 407.19 1454.48 10343.2 50.7655 1356.35 10361.1 349.612 1446.02 10343.8 114.253 1394.94 10352.7 275.036 1426.44 10346.7 192.829 1604.7 10670.7 454.386 1791.97 10647.7 6.87933 1632.84 10665.8 419.693 1789.48 10647.1 48.1918 1674.98 10659 360.705 1779.36 10647 115.438 1719.66 10652.7 283.694 1756.35 10648.6 198.037 1319.93 10398 442.559 1483.22 10366.1 11.7442 1344.84 10391.9 408.413 1481.57 10365.8 50.7258 1382.1 10383.3 350.677 1473.33 10366.4 114.495 1421.5 10375.1 275.874 1453.58 10369.3 193.381 1576.41 10641.9 453.562 1761.37 10617.7 7.16545 1604.35 10636.9 418.913 1759.31 10617.3 48.3357 1646.25 10629.9 360.021 1749.71 10617.4 115.365 1690.71 10623.5 283.168 1727.12 10619.2 197.725 1361.37 10435.5 444.69 1528.23 10404.6 11.1582 1386.93 10429.6 410.421 1526.97 10404.4 50.4949 1425.27 10421.3 352.444 1518.97 10405.1 114.797 1465.89 10413.4 277.262 1498.9 10407.8 194.261 1530.4 10595.9 452.033 1711.56 10570 7.84516 1557.97 10590.7 417.452 1710.05 10569.8 48.709 1599.37 10583.5 358.723 1701.16 10570.1 115.279 1643.33 10576.8 282.164 1679.21 10572.2 197.145 1414.86 10484.9 447.271 1586.31 10455.4 10.1515 1441.17 10479.2 412.88 1585.28 10455.3 49.9905 1480.71 10471.3 354.631 1577.31 10455.9 115.039 1522.65 10463.8 278.975 1556.73 10458.5 195.298 1473.82 10540.8 449.855 1650.26 10513 8.92612 1500.83 10535.3 415.359 1649.14 10512.9 49.3177 1541.44 10527.8 356.849 1640.87 10513.4 115.186 1584.55 10520.7 280.708 1619.64 10515.8 196.309 1139.73 10760.1 782.234 1604.15 10687.5 471.339 1186.2 10752.6 762.751 1573.01 10692.9 504.631 1260.96 10741 727.52 1517.38 10701.9 557.084 1350.74 10727.3 677.894 1440.54 10713.8 618.365 1431.65 11141.8 784.547 1957.71 11101.4 471.329 1484.63 11137.3 765.009 1922.88 11104.3 504.991 1569.77 11130.6 729.64 1860.39 11109.3 557.977 1671.85 11123 679.745 1773.64 11115.6 619.794 1162.54 10787.9 783.345 1632.79 10717.4 472.03 1209.62 10780.7 763.828 1601.37 10722.7 505.365 1285.38 10769.3 728.543 1545.14 10731.4 557.885 1376.38 10756.1 678.848 1467.37 10743 619.243 1404.46 11103.8 785.378 1925.85 11059.9 472.043 1456.93 11099 765.827 1891.36 11063.1 505.713 1541.3 11091.7 730.439 1829.43 11068.5 558.713 1642.49 11083.5 680.522 1743.43 11075.5 620.549 1201.08 10835.7 784.852 1680.77 10768.9 472.899 1249.15 10828.8 765.295 1648.86 10773.8 506.311 1326.53 10818 729.941 1591.65 10782.2 558.946 1419.48 10805.5 680.151 1512.35 10793.1 620.43 1360.46 11043.5 786.287 1873.87 10994 472.924 1412.08 11038.2 766.718 1839.94 10997.7 506.58 1495.12 11030.1 731.306 1778.96 11003.8 559.564 1594.79 11020.8 681.37 1694.23 11011.7 621.392 1251.14 10899.2 786.123 1742.29 10837.4 473.497 1300.41 10892.7 766.541 1709.75 10842 507.006 1379.73 10882.7 731.136 1651.3 10849.7 559.784 1475.01 10871.1 681.26 1570.16 10859.7 621.416 1306.72 10971.6 786.646 1809.64 10915.8 473.51 1357.23 10965.7 767.062 1776.39 10920 507.11 1438.53 10956.6 731.639 1716.63 10926.9 560.017 1536.14 10946.1 681.712 1633.59 10935.9 621.775 882.334 10467.7 760.398 1282.79 10379.3 457.567 922.14 10459 741.649 1255.78 10386 490.294 986.311 10445.2 707.644 1207.56 10397.4 541.733 1063.58 10428.8 659.554 1141.08 10412.2 601.619 1128.78 10746.8 781.644 1590.33 10673.3 470.96 1174.95 10739.3 762.18 1559.33 10678.7 504.232 1249.21 10727.5 726.98 1503.99 10687.9 556.655 1338.39 10713.7 677.39 1427.61 10699.9 617.899 902.037 10488.8 762.759 1307.21 10401.2 458.918 942.32 10480.2 743.94 1279.79 10407.9 491.73 1007.22 10466.5 709.807 1230.94 10419.1 543.318 1085.34 10450.2 661.537 1163.68 10433.7 603.398 1106.42 10720 780.358 1562.16 10644.5 470.118 1151.98 10712.3 760.938 1531.44 10650.1 503.354 1225.24 10700.2 725.806 1476.69 10659.5 555.718 1313.21 10686 676.296 1401.25 10671.9 616.888 935.192 10524.7 766.436 1348.33 10438.6 461.102 976.29 10516.2 747.502 1320.28 10445.1 494.03 1042.45 10502.7 713.164 1270.39 10456.1 545.823 1122.02 10486.7 664.62 1201.83 10470.5 606.178 1069.96 10676.9 778.023 1516.36 10598.7 468.564 1114.53 10669 758.686 1486.13 10604.5 501.747 1186.19 10656.5 723.684 1432.37 10614.3 554.019 1272.25 10641.9 674.325 1358.42 10627.2 615.064 977.945 10571.9 770.664 1401.46 10487.9 463.734 1020.12 10563.5 751.59 1372.65 10494.2 496.77 1087.95 10550.3 717.011 1321.48 10504.9 548.761 1169.49 10534.7 668.159 1251.23 10518.9 609.395 1024.97 10624.9 774.703 1460.07 10543.7 466.356 1068.35 10616.8 755.486 1430.51 10549.7 499.475 1138.11 10603.9 720.674 1377.99 10560 551.626 1221.9 10588.7 671.539 1305.86 10573.4 612.494 -2492.22 318.117 -663.453 -2188.31 1025.65 -1339.3 -2466.41 360.835 -718.302 -2214.97 947.211 -1280.77 -2423.97 438.292 -811.029 -2258.67 824.588 -1183.54 -2370.59 548.611 -930.599 -2313.04 683.321 -1060.97 -4286.65 -283.129 -255.272 -3658.73 118.555 -675.426 -4234.45 -260.189 -282.994 -3717.01 71.3254 -633.282 -4148.91 -218.286 -332.931 -3810.46 -1.03457 -565.415 -4041.19 -157.759 -402.384 -3923.74 -82.2714 -483.864 -2621.18 265.779 -634.183 -2288.44 956.052 -1293.22 -2593.08 307.38 -687.099 -2317.85 879.424 -1235.68 -2546.84 382.835 -776.858 -2365.97 759.666 -1140.26 -2488.59 490.367 -893.068 -2425.62 621.769 -1020.27 -4099.39 -232.023 -290.614 -3500.39 194.105 -731.3 -4049.64 -207.434 -320.524 -3555.96 144.511 -687.869 -3968.07 -162.589 -373.927 -3645.11 68.2631 -617.684 -3865.3 -97.9865 -447.444 -3753.21 -17.7231 -532.863 -2841.46 178.938 -581.635 -2462.26 833.616 -1208.55 -2809.64 218.272 -631.021 -2496.14 760.734 -1153.03 -2757.24 289.647 -715.29 -2551.36 646.919 -1061.21 -2691.16 391.454 -825.174 -2619.52 516.018 -946.289 -3808.24 -148.924 -350.569 -3255.65 322.294 -827.852 -3762.35 -121.343 -384.329 -3306.71 268.259 -782.09 -3687.03 -71.1418 -443.849 -3388.79 184.754 -707.716 -3592.07 0.914943 -524.568 -3488.52 89.9673 -617.018 -3133.67 70.2096 -509.467 -2697.66 669.76 -1089.88 -3097.26 106.052 -553.936 -2737.1 602.645 -1037.38 -3037.34 171.128 -630.465 -2801.07 498.028 -950.959 -2961.75 264.064 -731.285 -2879.59 377.999 -843.526 -3469.22 -44.179 -427.682 -2973.25 489.002 -954.428 -3427.94 -12.572 -466.582 -3018.67 428.723 -905.454 -3360.12 44.866 -534.277 -3091.96 335.095 -825.326 -3274.57 127.056 -624.659 -3181.4 228.147 -726.613 -4762.65 -426.911 -1.29995 -4406.89 -317.723 -225.835 -4744.86 -422.811 -16.1983 -4456.96 -336.627 -201.551 -4713.09 -415.525 -42.3745 -4529.17 -362.305 -163.875 -4666.26 -403.972 -78.1872 -4603.49 -386.256 -120.413 -8831.59 -209.984 12.4764 -8523.51 -289.712 682.539 -8827.66 -210.395 72.364 -8573.02 -277.712 630.222 -8812.31 -213.839 171.723 -8645.08 -259.241 541.333 -8776.94 -223.229 295.706 -8718.73 -239.319 425.095 -4973.05 -447.745 -0.574798 -4606.15 -349.794 -186.256 -4955.24 -443.656 -11.9672 -4658.54 -367.263 -164.837 -4923.22 -436.945 -32.2953 -4733.87 -390.573 -132.162 -4875.54 -426.961 -60.7894 -4810.97 -411.728 -95.4146 -8228.4 -183.597 10.3595 -7893.66 -234.998 565.585 -8221.9 -183.306 60.851 -7947.52 -228.113 523.394 -8203.36 -185.306 144.368 -8025.08 -216.674 451.069 -8164.97 -191.951 248.062 -8103.38 -203.334 355.486 -5339.69 -435.257 0.397526 -4957.44 -354.791 -104.165 -5322.32 -431.403 -3.91309 -5013.43 -369.932 -89.1939 -5290.51 -425.736 -12.4153 -5093.58 -389.554 -67.4549 -5242.01 -418.123 -26.015 -5174.9 -406.529 -44.9362 -7389.88 -190.648 7.21297 -7022.91 -202.714 390.839 -7379.84 -189.355 43.625 -7081.43 -202.818 363.747 -7356.82 -189.283 103.434 -7164.94 -201.036 316.141 -7314.25 -192.022 176.798 -7248.46 -196.809 251.405 -5863.95 -362.292 1.78012 -5471.13 -305.035 26.9173 -5847.95 -359.039 8.47735 -5530.53 -316.772 31.0067 -5817.59 -354.882 18.3939 -5615.2 -331.331 34.645 -5769.31 -350.167 28.1362 -5700.33 -342.975 34.1391 -6556.94 -260.048 4.06822 -6168.1 -233.696 199.571 -6543.48 -257.702 24.9622 -6228.74 -240.42 188.944 -6516.16 -255.464 58.6888 -6315.02 -247.86 168.342 -6469.91 -254.216 98.7455 -6401.24 -252.465 137.371 -2716.22 38.4132 -12.204 -2504.78 298.424 -637.145 -2703.9 44.5297 -63.6497 -2529.67 260.022 -583.015 -2681.67 61.008 -150.052 -2567.72 202.964 -493.407 -2649.86 93.4094 -260.678 -2610.32 142.908 -380.701 -4662.15 -408.636 -1.7234 -4312.06 -293.635 -242.489 -4644.45 -404.566 -18.1211 -4361.01 -313.274 -217.079 -4612.9 -397.012 -46.7975 -4431.72 -340.188 -177.39 -4566.54 -384.644 -85.7266 -4504.68 -365.615 -131.153 -2859.9 -4.77728 -11.6765 -2634.84 246.607 -608.853 -2847.06 1.02801 -60.5024 -2661.83 209.257 -556.796 -2823.82 16.7935 -142.668 -2702.86 153.869 -470.772 -2790.36 47.9516 -248.121 -2748.44 95.725 -362.814 -4462.24 -370.861 -2.65647 -4123.6 -243.299 -276.745 -4444.81 -366.835 -22.1143 -4170.32 -264.548 -248.994 -4413.77 -358.689 -55.8933 -4238.05 -294.138 -205.134 -4368.41 -344.574 -101.191 -4308.35 -322.736 -153.181 -3103.59 -73.6714 -10.5229 -2856.92 160.817 -558.079 -3089.88 -68.3678 -54.7399 -2887.34 125.592 -509.776 -3065.03 -53.8847 -129.413 -2933.16 73.5705 -430.224 -3029.05 -25.1098 -225.662 -2983.43 19.2564 -330.809 -4150.84 -311.305 -4.30679 -3830.58 -161.594 -334.787 -4134 -307.252 -28.8816 -3873.8 -185.728 -302.947 -4103.98 -297.989 -71.1809 -3936.89 -220.041 -251.881 -4060.29 -280.831 -127.133 -4003.05 -254.15 -190.184 -3423.44 -155.484 -8.69477 -3151.37 53.705 -488.366 -3408.64 -150.747 -46.7141 -3185.99 21.7525 -445.25 -3381.92 -137.998 -111.243 -3237.58 -25.0872 -374.632 -3343.1 -112.721 -194.937 -3293.32 -73.5228 -286.987 -3786.71 -237.539 -6.46262 -3489.29 -58.7201 -409.349 -3770.8 -233.259 -37.5555 -3528.33 -86.6834 -372.089 -3742.26 -222.382 -90.6664 -3585.85 -127.168 -311.586 -3700.79 -201.254 -160.136 -3647.04 -168.373 -237.303 -250.366 2444.57 -972.392 -437.981 3338.25 -1736.59 -261.251 2502.22 -1045.58 -416.617 3244.86 -1680.18 -281.285 2605.71 -1163.8 -383.541 3096.64 -1582.92 -310.19 2750.2 -1307.25 -345.827 2921.8 -1453.66 -1039 1349.78 -918.911 -1059.76 2206.68 -1704.04 -1037.29 1403.78 -989.916 -1054.6 2114.85 -1642.24 -1035.95 1500.94 -1106.28 -1047.44 1970.15 -1537.41 -1036.83 1637.44 -1250.43 -1040.85 1801.25 -1401.1 -300.301 2352.1 -973.518 -477.88 3247.49 -1743.09 -310.404 2409.78 -1046.94 -457.48 3153.76 -1686.01 -329.127 2513.35 -1165.65 -425.945 3005.07 -1587.74 -356.338 2657.96 -1309.88 -390.084 2829.82 -1457.33 -948.691 1450.57 -931.471 -987.856 2318.09 -1719.98 -948.329 1505.41 -1003.23 -980.879 2225.38 -1658.33 -949.3 1604.04 -1120.64 -970.82 2079.2 -1553.56 -953.245 1742.47 -1265.75 -960.767 1908.37 -1417.04 -388.037 2201.01 -973.792 -547.3 3098.08 -1751.28 -396.724 2258.67 -1047.48 -528.662 3003.88 -1693.16 -413.066 2362.2 -1166.8 -499.945 2854.6 -1593.28 -437.185 2506.82 -1312.14 -467.473 2678.89 -1461.13 -810.953 1611.76 -947.944 -878.926 2492.57 -1739.22 -812.724 1667.7 -1020.65 -869.127 2398.84 -1677.98 -817.341 1768.22 -1139.32 -854.555 2250.88 -1573.65 -826.102 1909.13 -1285.46 -839.094 2077.68 -1437.24 -509.446 2011.92 -970.725 -642.557 2908.38 -1756.1 -516.129 2069.36 -1044.48 -626.441 2813.87 -1696.76 -529.088 2172.49 -1164.19 -601.757 2664.28 -1595.07 -548.798 2316.69 -1310.47 -574.139 2488.5 -1461.01 -655.932 1807.52 -962.144 -757.186 2698.8 -1752.63 -660.199 1864.39 -1035.59 -744.151 2604.4 -1692.18 -669.062 1966.53 -1155.11 -724.4 2455.2 -1588.9 -683.41 2109.52 -1301.73 -702.715 2280.2 -1453.3 -1141.85 940.654 -17.6857 -1086.27 1275.16 -877.635 -1135.76 948.778 -91.9921 -1089.44 1226.69 -806.284 -1126.19 970.547 -215.028 -1095.47 1154.21 -686.94 -1115.04 1013 -369.79 -1104.28 1077.19 -534.679 -2647.22 59.9703 -12.4113 -2442.53 323.744 -650.199 -2635.16 66.2364 -65.0808 -2466.39 284.892 -595.119 -2613.43 83.0405 -153.456 -2502.97 227.118 -503.864 -2582.44 115.991 -266.482 -2544.1 166.239 -388.97 -1250.32 846.225 -17.1691 -1184.49 1174.85 -863.373 -1243.81 854.225 -90.1039 -1189.02 1127.24 -793.022 -1233.38 875.621 -210.962 -1197.09 1056.03 -675.394 -1220.82 917.32 -363.131 -1208.12 980.363 -525.415 -2505.46 109.469 -12.8277 -2314.74 380.537 -675.91 -2493.93 116.01 -67.9155 -2336.51 340.797 -618.963 -2473.25 133.427 -160.188 -2370.09 281.617 -524.476 -2444 167.431 -277.945 -2408.15 219.13 -405.284 -1439.93 696.374 -16.3556 -1355.7 1015.57 -838.042 -1432.66 704.18 -86.8581 -1362.66 969.326 -769.477 -1420.66 724.982 -203.845 -1374.39 900.159 -654.92 -1405.56 765.472 -351.394 -1389.39 826.678 -509.024 -2272.96 205.563 -13.519 -2105.37 487.703 -715.352 -2262.31 212.47 -72.3309 -2123.76 446.563 -655.555 -2243.43 230.759 -170.596 -2152.45 385.189 -556.135 -2217.13 266.324 -295.616 -2185.47 320.225 -430.377 -1695.54 519.664 -15.3888 -1585.91 827.221 -802.723 -1687.22 527.224 -82.5098 -1596.27 782.635 -736.666 -1673.07 547.284 -194.099 -1613.08 715.973 -626.428 -1654.48 586.265 -335.181 -1633.54 645.192 -486.275 -1987.48 347.266 -14.405 -1848.53 642.098 -760.122 -1977.96 354.527 -77.4644 -1862.89 599.275 -697.108 -1961.38 373.735 -182.55 -1885.64 535.3 -592.124 -1938.84 411.032 -315.808 -1912.45 467.45 -458.962 -205.12 2059.27 -18.662 -245.414 2417.91 -936.395 -202.778 2067.95 -99.7167 -236.056 2365.84 -861.631 -201.235 2091.32 -233.063 -223.062 2288.12 -736.127 -203.453 2136.88 -399.397 -211.042 2205.64 -575.097 -1090.92 987.408 -17.9398 -1040.07 1324.8 -884.255 -1085.01 995.594 -92.8838 -1042.62 1275.92 -812.443 -1075.84 1017.55 -216.931 -1047.7 1202.81 -692.305 -1065.35 1060.37 -372.894 -1055.49 1125.12 -538.989 -261.195 1966.24 -18.7309 -295.725 2325.42 -937.423 -258.63 1974.93 -99.7449 -287.114 2273.28 -862.47 -256.604 1998.34 -233.079 -275.259 2195.46 -736.692 -258.014 2043.97 -399.494 -264.494 2112.85 -575.389 -990.424 1082.52 -18.375 -949.124 1425.19 -896.417 -984.892 1090.82 -94.5058 -950.407 1375.55 -823.762 -976.514 1113.12 -220.43 -953.583 1301.29 -702.175 -967.343 1156.62 -378.614 -959.296 1222.39 -546.926 -360.025 1814.89 -18.8796 -384.143 2174.33 -937.599 -357.054 1823.59 -99.688 -376.881 2122.19 -862.468 -354.155 1847.01 -232.779 -367.084 2044.31 -736.453 -354.107 1892.68 -399.048 -358.584 1961.62 -574.971 -836.445 1236.42 -18.8437 -810.368 1585.88 -912.379 -831.51 1244.87 -96.5823 -809.647 1535.24 -838.641 -824.403 1267.61 -225.032 -809.792 1459.52 -715.179 -817.343 1311.99 -386.176 -812.198 1379.06 -557.411 -497.055 1626.94 -19.0499 -506.513 1985.34 -934.541 -493.512 1635.6 -99.3073 -501.154 1933.38 -859.457 -489.382 1658.94 -231.617 -494.255 1855.73 -733.597 -487.28 1704.48 -397.118 -488.941 1773.25 -572.459 -662.258 1426.07 -19.0841 -654.156 1781.21 -926.165 -658.028 1434.66 -98.3054 -651.083 1729.73 -851.539 -652.425 1457.77 -229.053 -647.66 1652.79 -726.521 -647.868 1502.88 -392.836 -646.162 1571.04 -566.614 -754.332 4717.94 -2263.35 -1071.04 6152.63 -2412.36 -782.592 4837.45 -2288.91 -1044.31 6031 -2412.74 -828.492 5037.88 -2326.06 -1000.29 5827.95 -2407.93 -885.14 5293.83 -2363.63 -944.907 5570.24 -2392.25 -1183.72 3608.27 -2344.74 -1366.37 5165.15 -2645.11 -1198.22 3734.93 -2382.84 -1348.53 5029.52 -2632.38 -1222.19 3948.46 -2440.95 -1320.35 4804.9 -2605.85 -1252.82 4223.2 -2505.26 -1286.84 4522.71 -2562.88 -783.204 4635.82 -2280.36 -1093.01 6086.05 -2440.16 -810.724 4756.41 -2306.89 -1066.7 5962.87 -2439.7 -855.454 4958.75 -2345.64 -1023.45 5757.33 -2433.44 -910.729 5217.28 -2385.18 -969.167 5496.67 -2415.87 -1134.38 3727.41 -2352.6 -1334.32 5280.64 -2637.67 -1150.59 3854.11 -2389.54 -1315.26 5145.74 -2626.38 -1177.31 4067.58 -2445.67 -1284.95 4922.12 -2602.19 -1211.23 4342.02 -2507.37 -1248.57 4640.88 -2562.07 -832.427 4498.78 -2305.93 -1129.45 5973.09 -2484.36 -858.582 4621.03 -2334.11 -1103.93 5847.46 -2482.39 -901.151 4826.28 -2375.57 -1062.11 5638.03 -2473.6 -953.893 5088.77 -2418.5 -1009.87 5372.75 -2452.77 -1059.95 3909.42 -2357.41 -1285.63 5452.99 -2618.25 -1078.74 4035.84 -2392.46 -1264.78 5319.55 -2609.19 -1109.57 4248.65 -2445.39 -1231.33 5098.04 -2588.63 -1148.42 4521.89 -2502.92 -1190.69 4818.97 -2552.98 -898.543 4320.65 -2332.32 -1176.58 5822.1 -2535.7 -922.696 4444.7 -2362.65 -1152.25 5693.61 -2531.67 -962.088 4653.13 -2407.68 -1112.61 5479.68 -2519.41 -1011.09 4919.99 -2455.1 -1063.42 5209.13 -2494.16 -976.991 4117.25 -2351.18 -1230.39 5643.17 -2583.27 -998.591 4242.78 -2383.92 -1207.67 5511.93 -2576.78 -1033.92 4453.9 -2432.95 -1170.9 5293.76 -2560.43 -1078.12 4724.58 -2485.46 -1125.71 5018.35 -2530.02 -1098.69 2196.48 -1724.66 -1202.3 3487.18 -2319.96 -1103.8 2292.41 -1784.41 -1189.27 3363.81 -2278.34 -1113.58 2457.47 -1879.7 -1169.56 3164.73 -2205.58 -1128.47 2676.16 -1993.37 -1147.92 2923.14 -2107.13 -2128.46 1098.02 -1388.73 -1876.33 2272.6 -2037.32 -2103.46 1181.65 -1446.95 -1894.07 2154.04 -1984.45 -2063.35 1326.32 -1541.92 -1925.05 1966.07 -1896.02 -2015.24 1520.18 -1659.4 -1966.93 1743.08 -1782.89 -1175.22 2083.4 -1705.23 -1255.69 3365.48 -2307.58 -1178.31 2178.36 -1765.14 -1244.61 3242.38 -2264.87 -1184.78 2341.81 -1860.86 -1228.15 3044.03 -2190.53 -1195.54 2558.59 -1975.37 -1210.59 2803.77 -2090.44 -2032.4 1169.85 -1429.68 -1815.04 2360.7 -2078.64 -2010.27 1254.95 -1488.52 -1829.74 2241.08 -2026.39 -1974.97 1402.12 -1584.31 -1855.7 2051.14 -1938.7 -1932.99 1599.15 -1702.41 -1891.32 1825.34 -1826.01 -1307.27 1903.98 -1670.24 -1345.54 3172.84 -2283.98 -1306.72 1997.4 -1730.35 -1338.07 3050.09 -2239.45 -1307.18 2158.34 -1826.7 -1327.54 2852.79 -2162.47 -1310.43 2372.14 -1942.52 -1317.45 2614.53 -2059.71 -1875 1299.67 -1490.96 -1714.59 2512.43 -2137.38 -1857.62 1386.88 -1550.53 -1724.31 2391.58 -2086.39 -1830.21 1537.58 -1647.19 -1742.09 2199.17 -2000.33 -1798.27 1739.03 -1765.72 -1767.47 1969.68 -1888.9 -1482.92 1691.25 -1620.34 -1461.84 2944.06 -2247.36 -1477.29 1782.78 -1680.56 -1459.47 2821.7 -2200.57 -1469.37 1940.65 -1777.46 -1457.35 2625.63 -2120.35 -1462.08 2150.79 -1894.69 -1457.82 2389.8 -2014.34 -1681.61 1479.95 -1558.34 -1590.65 2714.13 -2197.2 -1670.05 1569.39 -1618.41 -1594.33 2592.34 -2148.12 -1652.33 1723.8 -1715.47 -1602.17 2397.83 -2064.66 -1632.67 1929.79 -1833.73 -1615.11 2164.87 -1955.56 -448.715 3384.6 -1763.33 -740.477 4660.4 -2250.1 -471.086 3482.08 -1816.84 -712.414 4542.73 -2221.02 -508.884 3649.11 -1900.7 -667.486 4350.62 -2167.61 -558.152 3868.76 -1997.84 -613.372 4114.05 -2091.07 -1062.49 2252.44 -1733.6 -1176.68 3547.48 -2325.45 -1068.53 2348.86 -1793.26 -1162.75 3423.96 -2284.34 -1079.83 2514.71 -1888.34 -1141.57 3224.5 -2212.35 -1096.62 2734.35 -2001.58 -1118.07 2982.24 -2114.7 -488.137 3294.04 -1770.16 -769.716 4577.76 -2266.64 -509.538 3391.94 -1824.37 -742.423 4459.1 -2236.6 -545.77 3559.74 -1909.44 -698.807 4265.49 -2181.66 -593.14 3780.54 -2008.2 -646.418 4027.3 -2103.28 -991.486 2364.26 -1749.45 -1126.49 3666.57 -2333.85 -999.366 2461.53 -1808.87 -1110.82 3542.87 -2293.82 -1013.68 2628.77 -1903.41 -1086.76 3342.84 -2223.42 -1034.2 2850.07 -2015.71 -1059.6 3099.49 -2127.43 -556.686 3144.88 -1778.89 -819.617 4439.94 -2291.4 -576.315 3243.34 -1834.22 -793.74 4319.78 -2259.74 -609.688 3412.21 -1921.25 -752.537 4123.97 -2202.23 -653.589 3634.59 -2022.65 -703.314 3883.42 -2120.78 -883.95 2539.22 -1768.45 -1050.79 3848.68 -2339.57 -894.681 2637.48 -1827.31 -1032.51 3725.05 -2301.3 -913.641 2806.3 -1920.72 -1004.08 3524.73 -2233.55 -939.913 3029.42 -2031.19 -971.365 3280.42 -2140.41 -650.699 2955.37 -1784.33 -886.727 4260.99 -2316.74 -667.793 3054.25 -1840.99 -862.925 4139.23 -2282.99 -697.072 3223.94 -1930.35 -825.236 3941.16 -2222.17 -735.994 3447.64 -2034.95 -780.598 3698.33 -2136.87 -763.807 2745.76 -1781.44 -966.439 4056.9 -2334.45 -777.801 2844.62 -1839.35 -945.266 3933.9 -2298.39 -802.06 3014.37 -1930.97 -912.006 3734.19 -2233.99 -834.848 3238.42 -2038.77 -873.101 3489.97 -2144.58 397.593 4229.81 -822.249 115.572 5005.48 -1411.5 378.788 4280.44 -882.11 145.437 4926.17 -1371.4 345.721 4371.52 -977.514 192.294 4799.31 -1300.64 300.389 4498.43 -1090.98 246.955 4648.18 -1203.85 187.943 3484.29 -914.015 -74.8223 4327.95 -1592.78 170.996 3539.38 -981.339 -46.5085 4241.07 -1544.95 140.867 3638.21 -1089.2 -2.21038 4102.56 -1461.41 99.0428 3775.73 -1218.53 49.1973 3938.16 -1348.54 383.897 4172.75 -830.557 102.448 4954.22 -1427.5 365.171 4223.82 -891.103 132.272 4874.28 -1386.78 332.214 4315.61 -987.632 179.068 4746.46 -1314.98 286.991 4443.44 -1102.5 233.652 4594.24 -1216.84 210.826 3554.52 -906.812 -55.0484 4392.2 -1577.95 193.615 3609.27 -973.534 -26.4694 4305.99 -1530.82 163.05 3707.47 -1080.38 18.2689 4168.53 -1448.4 120.672 3844.07 -1208.38 70.2321 4005.34 -1336.94 359.796 4075.64 -844.169 79.5928 4866.65 -1453.8 341.224 4127.4 -905.823 109.326 4785.66 -1412.04 308.49 4220.35 -1004.18 155.978 4656.25 -1338.49 263.504 4349.68 -1121.34 210.38 4502.23 -1238.12 246.33 3668.04 -894.573 -23.9277 4495.95 -1553.1 228.736 3722.22 -960.291 5.01891 4410.85 -1507.1 197.542 3819.36 -1065.44 50.368 4275.1 -1426.55 154.38 3954.45 -1191.25 103.105 4113.87 -1317.39 326.623 3948.49 -861.025 48.6422 4751.46 -1486.61 308.295 4001.09 -924.039 78.2088 4669.15 -1443.5 275.931 4095.44 -1024.66 124.587 4537.72 -1367.71 231.361 4226.65 -1144.67 178.638 4381.4 -1264.5 287.184 3806.27 -878.642 12.5971 4622.09 -1521.28 269.193 3859.7 -943.072 41.897 4538.34 -1476.69 237.357 3955.52 -1046.05 87.8332 4404.7 -1398.46 193.411 4088.73 -1169.08 141.318 4245.87 -1292.18 268.695 3084.55 -17.0012 184.23 3424.18 -884.062 269.031 3091.62 -94.688 199.238 3374.27 -814.536 266.599 3112.61 -222.056 220.788 3299.79 -697.347 258.124 3155.33 -380.145 242.188 3220.84 -546.146 -178.795 2104.9 -18.6365 -221.745 2463.2 -935.677 -176.556 2113.57 -99.6909 -212.043 2411.16 -861.024 -175.235 2136.92 -233.01 -198.524 2333.51 -735.685 -177.825 2182.44 -399.265 -185.926 2251.12 -574.828 241.485 3009.56 -17.0558 159.364 3351.64 -890.623 241.966 3016.88 -95.2811 174.088 3301.46 -820.522 239.785 3038.21 -223.546 195.214 3226.59 -702.389 231.657 3081.31 -382.775 216.149 3147.22 -550.015 -126.948 2197.68 -18.554 -175.065 2555.16 -933.783 -124.911 2206.32 -99.5726 -164.693 2503.22 -859.391 -124.024 2229.6 -232.779 -150.154 2425.73 -734.446 -127.338 2275.01 -398.802 -136.432 2343.52 -574.012 192.897 2882.12 -17.2312 114.992 3227.87 -900.726 193.617 2889.8 -96.2454 129.195 3177.28 -829.715 191.864 2911.65 -225.837 149.538 3101.81 -710.104 184.349 2955.31 -386.782 169.616 3021.81 -555.913 -47.8408 2347.24 -18.3355 -103.674 2703.09 -929.477 -46.1147 2355.79 -99.1921 -92.3033 2651.34 -855.605 -45.8819 2378.91 -232.049 -76.2424 2574.15 -731.457 -50.2769 2424.08 -397.489 -60.8485 2492.3 -571.908 124.53 2715.42 -17.5598 52.675 3065.15 -912.005 125.557 2723.47 -97.3858 66.1122 3014.1 -839.936 124.377 2745.85 -228.37 85.3021 2937.98 -718.623 117.727 2790.12 -391.159 104.121 2857.28 -562.378 41.0446 2528.88 -17.9726 -23.1922 2882.13 -922.106 42.4169 2537.23 -98.4415 -10.7341 2830.67 -849.031 41.922 2560.06 -230.567 6.97591 2753.95 -726.125 36.3475 2604.85 -394.928 24.1771 2672.6 -568 507.829 3898.65 -16.5066 406.399 4206.45 -792.604 507.422 3905.13 -86.3547 423.407 4160.92 -730.79 503.422 3924.12 -200.789 448.109 4093.2 -626.374 492.409 3962.62 -342.64 473.128 4021.72 -491.301 281.378 3120.44 -16.9912 195.824 3458.82 -880.763 281.644 3127.39 -94.4002 210.961 3409.06 -811.523 279.091 3148.2 -221.308 232.706 3334.78 -694.804 270.452 3190.72 -378.816 254.319 3256.03 -544.19 493.337 3838.71 -16.8185 392.661 4149.18 -800.579 492.919 3845.04 -87.2912 409.578 4103.2 -738.082 488.948 3864 -202.772 434.12 4034.78 -632.549 478.044 3902.79 -345.963 458.942 3962.52 -496.087 306.5 3193.4 -17.0049 218.835 3529.21 -873.848 306.631 3200.12 -93.8201 234.221 3479.74 -805.201 303.846 3220.59 -219.748 256.342 3405.89 -689.46 294.891 3262.72 -376.024 278.372 3327.59 -540.079 467.718 3736.88 -17.149 368.48 4051.73 -813.652 467.305 3743.05 -88.6893 385.225 4005.07 -750.047 463.416 3762.03 -205.945 409.476 3935.55 -642.689 452.723 3801.32 -351.389 433.944 3862.05 -503.943 345.312 3311.45 -17.095 254.525 3642.99 -862.092 345.254 3317.86 -92.8765 270.279 3594.02 -794.439 342.136 3337.84 -217.105 292.96 3520.93 -680.349 332.711 3379.33 -371.258 315.613 3443.46 -533.057 432.22 3603.86 -17.299 335.182 3924.19 -829.849 431.861 3609.95 -90.2231 351.668 3876.71 -764.887 428.141 3629.1 -209.763 375.495 3805.91 -655.279 417.775 3669.06 -358.074 399.46 3730.98 -513.689 389.694 3455.42 -17.2385 295.574 3781.57 -846.782 389.457 3461.6 -91.6565 311.719 3733.29 -780.409 386.002 3481.09 -213.649 335.004 3661.25 -668.451 376.076 3521.83 -365.019 358.342 3584.93 -523.873 605.483 5325.03 -620.764 337.015 5959.57 -1041.83 586.825 5366.7 -665.344 364.597 5894.92 -1015.03 554.369 5441.51 -735.787 408.181 5791.43 -966.757 510.504 5545.52 -818.429 459.574 5668.01 -899.119 530.666 4869.03 -716.399 249.248 5565.95 -1213.3 511.744 4914.85 -767.711 278.798 5494.91 -1180.43 478.517 4997.04 -849.243 325.279 5381.25 -1121.89 433.075 5111.26 -945.719 379.69 5245.74 -1040.98 600.356 5291.01 -628.64 330.56 5929.99 -1056.15 581.653 5333.09 -673.801 358.299 5864.9 -1028.86 549.086 5408.52 -745.205 402.135 5760.75 -979.745 505.023 5513.27 -829.046 453.822 5636.55 -910.987 538.497 4912.8 -708.04 257.714 5603.35 -1198.29 519.595 4958.3 -758.751 287.144 5532.98 -1165.95 486.403 5039.85 -839.305 333.467 5420.42 -1108.33 441.02 5153.04 -934.575 387.734 5286.23 -1028.57 591.424 5232.7 -641.823 319.432 5879.32 -1079.95 572.663 5275.41 -687.933 347.457 5813.47 -1051.84 539.935 5351.88 -760.905 391.738 5708.14 -1001.32 495.566 5457.9 -846.707 443.924 5582.57 -930.705 550.791 4983.28 -694.251 271.35 5663.78 -1173.62 531.914 5028.25 -743.992 300.539 5594.46 -1142.18 498.787 5108.73 -822.959 346.528 5483.6 -1086.04 453.538 5220.3 -916.26 400.48 5351.47 -1008.18 579.312 5155.63 -658.675 304.635 5812.48 -1110.16 560.5 5199.11 -705.964 333.047 5745.59 -1080.99 527.609 5276.87 -780.886 377.913 5638.64 -1028.66 482.896 5384.59 -869.132 430.727 5511.16 -955.709 565.17 5068.58 -676.987 287.846 5737.23 -1142.83 546.322 5112.86 -725.536 316.676 5669.14 -1112.49 513.293 5192.01 -802.541 362.153 5560.26 -1058.21 468.272 5301.66 -893.395 415.599 5430.5 -982.731 640.887 4550.78 -11.4338 535.618 4826.21 -694.867 639.678 4554.88 -73.8359 552.745 4784.72 -641.355 634.644 4570.1 -175.734 577.626 4722.82 -550.546 622.759 4603.88 -301.427 602.935 4657.45 -432.358 514.618 3927.34 -16.3211 412.851 4233.85 -788.714 514.221 3933.91 -85.8728 429.901 4188.53 -727.236 510.211 3952.92 -199.808 454.676 4121.16 -623.367 499.149 3991.28 -341.016 479.786 4050.07 -488.969 632.504 4502.8 -11.4687 527.307 4780.91 -702.924 631.43 4507.42 -74.5909 544.468 4739.2 -648.773 626.532 4523.3 -177.669 569.424 4677.05 -556.884 614.699 4557.58 -304.828 594.826 4611.45 -437.297 528.145 3985.71 -15.8754 425.749 4289.54 -780.711 527.756 3992.39 -84.8324 442.87 4244.66 -719.926 523.717 4011.41 -197.762 467.774 4177.99 -617.186 512.561 4049.48 -337.666 493.047 4107.66 -484.176 617.781 4421.22 -11.8083 512.757 4703.75 -716.225 616.905 4426.6 -76.0439 529.968 4661.63 -660.99 612.218 4443.42 -180.967 555.025 4598.99 -567.292 600.475 4478.48 -310.451 580.549 4532.9 -445.403 549.263 4080.22 -15.0043 446.002 4379.66 -767.48 548.849 4086.97 -83.0098 463.206 4335.46 -707.849 544.736 4105.86 -194.321 488.259 4269.83 -606.98 533.435 4143.41 -332.107 513.726 4200.65 -476.256 597.597 4314.59 -12.6286 492.926 4602.64 -732.939 596.931 4320.7 -78.157 510.176 4559.94 -676.3 592.474 4338.46 -185.251 535.313 4496.51 -580.29 580.857 4374.42 -317.522 560.921 4429.64 -455.518 573.758 4195.59 -13.8123 469.682 4489.53 -750.816 573.255 4202.17 -80.6379 486.934 4446.1 -692.637 569 4220.67 -189.935 512.076 4381.63 -594.122 557.537 4257.49 -325.08 537.672 4313.69 -466.271 717.766 5060.17 -15.7527 614.27 5305.78 -598.595 716.706 5063.12 -68.2127 631.235 5268.19 -552.311 711.917 5075.87 -154.21 655.856 5212.23 -474.018 700.34 5105.49 -260.852 680.849 5153.34 -372.59 644.826 4573.74 -11.4693 539.531 4847.85 -690.948 643.55 4577.56 -73.5072 556.64 4806.46 -637.741 638.448 4592.45 -174.811 581.482 4744.68 -547.454 626.54 4625.98 -299.774 606.743 4679.4 -429.947 712.975 5023.8 -15.6118 609.158 5271.57 -606.188 711.793 5026.4 -68.814 626.141 5233.55 -559.315 706.873 5038.9 -156.002 650.762 5176.86 -480.024 695.227 5068.69 -264.083 675.734 5117.15 -377.288 652.675 4620.31 -11.6465 547.352 4891.75 -682.884 651.283 4623.62 -72.9071 564.431 4850.58 -630.297 646.066 4637.88 -172.952 589.205 4789.05 -541.074 634.122 4670.91 -296.378 614.377 4724.02 -424.971 704.528 4961.47 -15.1391 600.243 5212.93 -618.911 703.176 4963.67 -69.6416 617.244 5174.25 -571.073 698.068 4975.92 -158.906 641.863 5116.45 -490.124 686.316 5006.05 -269.473 666.811 5055.48 -385.187 664.925 4695.36 -12.1851 559.635 4962.46 -669.569 663.408 4698 -72.0959 576.681 4921.69 -617.986 658.073 4711.41 -169.971 601.375 4860.69 -530.5 646.105 4743.69 -290.781 626.436 4796.2 -416.723 692.901 4879.15 -14.2462 588.143 5135.49 -635.19 691.399 4881.13 -70.4797 605.157 5096.03 -586.142 686.117 4893.39 -162.498 629.775 5037 -503.091 674.254 4924.08 -276.337 654.717 4974.64 -395.321 679.119 4786.28 -13.1354 574.007 5048.08 -652.887 677.553 4788.41 -71.2784 591.032 5007.89 -602.538 672.185 4801.07 -166.332 615.671 4947.74 -517.209 660.242 4832.51 -283.776 640.648 4884.15 -406.348 -30.3093 6878.2 -1221.94 -334.309 7748.6 -1149.7 -60.231 6953.35 -1223.55 -311.763 7677.78 -1163.51 -107.906 7078.36 -1223 -273.282 7558.16 -1183.31 -164.907 7236.12 -1216.6 -222.501 7404.05 -1202.73 -137.636 6579.52 -1453.12 -463.782 7549.22 -1402.54 -168.599 6663.25 -1458 -438.382 7470.53 -1416 -218.3 6802.62 -1462.3 -395.614 7337.47 -1434.57 -278.432 6978.57 -1461.02 -340.168 7165.8 -1451.34 -38.501 6856.13 -1240.51 -344.363 7734.74 -1170.05 -68.5433 6931.99 -1242.35 -321.598 7663.32 -1183.82 -116.425 7058.22 -1242.15 -282.787 7542.64 -1203.48 -173.707 7217.54 -1236.16 -231.64 7387.09 -1222.65 -127.561 6608.31 -1432.26 -451.765 7569.13 -1379.65 -158.41 6691.31 -1436.82 -426.58 7491.23 -1393.16 -207.899 6829.47 -1440.66 -384.148 7359.46 -1411.85 -267.727 7003.86 -1438.91 -329.091 7189.4 -1428.85 -52.4728 6818.16 -1271.72 -361.419 7710.42 -1204.2 -82.6813 6895.23 -1273.96 -338.263 7638 -1217.91 -130.865 7023.48 -1274.39 -298.867 7515.55 -1237.39 -188.588 7185.36 -1269.09 -247.088 7357.61 -1256.17 -111.24 6654.66 -1398.18 -432.261 7601 -1342.34 -141.934 6736.45 -1402.22 -407.464 7524.35 -1355.91 -191.118 6872.59 -1405.32 -365.627 7394.64 -1374.77 -250.477 7044.41 -1402.81 -311.235 7227.18 -1392.15 -70.803 6767.78 -1311.92 -383.649 7677.38 -1248.11 -101.179 6846.38 -1314.71 -359.964 7603.66 -1261.77 -149.696 6977.2 -1315.96 -319.785 7478.95 -1281.04 -207.948 7142.32 -1311.54 -267.17 7317.97 -1299.35 -91.3196 6710.71 -1356.05 -408.374 7639.15 -1296.3 -121.854 6790.96 -1359.47 -384.106 7563.96 -1309.91 -170.706 6924.53 -1361.66 -343.062 7436.72 -1328.98 -229.519 7093.12 -1358.21 -289.528 7272.43 -1346.81 230.325 5582.79 -1236.04 -127.283 6524.65 -1460.24 199.974 5656.78 -1266.27 -95.9365 6440.9 -1452.36 149.925 5782.99 -1311.83 -44.6463 6302.52 -1434.67 86.9424 5947.7 -1361.24 19.1768 6129.57 -1404.13 106.86 5068.99 -1422.31 -263.175 6114.13 -1713.51 76.0917 5150.89 -1459.05 -230.13 6020.75 -1700.89 25.0902 5290.61 -1515.14 -176.284 5866.73 -1674.88 -39.5637 5473 -1577.29 -109.704 5674.64 -1633.1 221.48 5544.46 -1251.47 -137.6 6494.37 -1481.17 191.022 5619.12 -1282.23 -106.118 6409.91 -1472.92 140.786 5746.45 -1328.68 -54.6048 6270.36 -1454.57 77.5495 5912.57 -1379.14 9.49622 6095.97 -1423.11 119.297 5118.28 -1406.01 -250.359 6153.65 -1691.12 88.5026 5199.5 -1442.16 -217.413 6061.21 -1678.96 37.4788 5338 -1497.31 -163.702 5908.72 -1653.73 -27.1643 5518.76 -1558.32 -97.239 5718.5 -1612.96 206.225 5478.74 -1277.21 -155.219 6442.23 -1516.06 175.622 5554.52 -1308.88 -123.491 6356.54 -1507.19 125.12 5683.7 -1356.77 -71.582 6214.99 -1487.72 61.5016 5852.18 -1409 -7.01149 6038.15 -1454.74 139.018 5197.66 -1379.18 -229.619 6217.33 -1654.43 108.203 5277.75 -1414.37 -196.881 6126.4 -1642.99 57.1831 5414.29 -1467.99 -143.459 5976.36 -1619 -7.37958 5592.4 -1527.14 -77.2684 5789.11 -1579.9 185.834 5391.87 -1310.03 -178.377 6372.95 -1560.51 155.105 5469.05 -1342.83 -146.312 6285.65 -1550.83 104.345 5600.59 -1392.56 -93.8837 6141.49 -1529.94 40.3196 5772.11 -1447.01 -28.7281 5961.43 -1495 162.423 5293.77 -1345.62 -204.35 6294.42 -1608.78 131.622 5372.46 -1379.65 -171.922 6205.29 -1598.2 80.6816 5506.56 -1431.37 -118.951 6058.17 -1575.74 16.3229 5681.43 -1488.24 -53.215 5874.49 -1538.67 323.301 5991.52 -1054.2 -15.4998 6841.84 -1220.62 295.037 6058.57 -1078.33 14.7634 6766.83 -1216.51 248.262 6172.96 -1114.29 64.0326 6642.51 -1205.53 189.065 6322.15 -1152.43 124.916 6486.6 -1184.29 234.527 5601.05 -1228.58 -122.36 6539.02 -1450.12 204.234 5674.7 -1258.55 -91.0731 6455.62 -1442.42 154.284 5800.38 -1303.69 -39.8856 6317.8 -1425.04 91.4301 5964.4 -1352.58 23.8057 6145.55 -1394.95 316.769 5962.16 -1068.75 -23.6335 6819.42 -1239.07 288.35 6029.68 -1093.33 6.75051 6743.72 -1234.71 241.325 6144.91 -1129.98 56.2246 6618.28 -1223.31 181.83 6295.25 -1168.89 117.377 6461.03 -1201.48 243.057 5638.13 -1213.3 -112.338 6568.16 -1429.43 212.898 5711.12 -1242.73 -81.1619 6485.48 -1422.08 163.171 5835.7 -1287 -30.1684 6348.81 -1405.35 100.596 5998.34 -1334.84 33.2632 6177.99 -1376.16 305.5 5911.87 -1092.94 -37.5277 6780.88 -1270.08 276.795 5980.21 -1118.29 -6.97787 6704 -1265.29 229.324 6096.88 -1156.12 42.7929 6576.69 -1253.13 169.312 6249.17 -1196.37 104.361 6417.2 -1230.24 256.821 5698.05 -1188.2 -96.0854 6615.1 -1395.62 226.924 5769.99 -1216.75 -65.0603 6533.6 -1388.85 177.614 5892.81 -1259.62 -14.3464 6398.86 -1373.16 115.533 6053.21 -1305.77 48.6835 6230.4 -1345.4 290.507 5845.55 -1123.65 -55.7833 6729.76 -1310 261.413 5914.98 -1150.01 -25.0672 6651.4 -1304.62 213.341 6033.54 -1189.4 25.0243 6521.69 -1291.4 152.652 6188.37 -1231.45 87.0782 6359.31 -1267.06 273.504 5770.9 -1156.88 -76.2326 6671.89 -1353.81 243.982 5841.58 -1184.35 -45.3617 6591.91 -1347.73 195.255 5962.29 -1225.5 5.045 6459.6 -1333.28 133.836 6119.95 -1269.62 67.5996 6294.09 -1307.24 -901.313 8302.94 -1451.7 -1018.15 9065.89 -1076.34 -916.572 8375.85 -1422.64 -1013.08 9010.08 -1110.89 -939.519 8493.92 -1373.17 -1002.84 8913.36 -1167.22 -964.464 8637.54 -1308.49 -986.482 8784.2 -1236.54 -1106.82 8068.43 -1801.61 -1238.37 8980.43 -1407.06 -1123.67 8154.8 -1772.29 -1232.22 8913.31 -1444.62 -1149.06 8295.11 -1721.82 -1220.18 8797.03 -1505.38 -1176.77 8466.44 -1654.89 -1201.48 8642 -1579.27 -917.689 8287.55 -1479.38 -1035.65 9062.01 -1101.82 -933.093 8361.47 -1450.22 -1030.51 9005.35 -1136.64 -956.251 8481.25 -1400.53 -1020.14 8907.13 -1193.38 -981.417 8627.03 -1335.53 -1003.63 8775.95 -1263.15 -1088.61 8092.36 -1769.31 -1218.79 8990.1 -1375.71 -1105.33 8177.45 -1739.93 -1212.75 8924.11 -1413.04 -1130.52 8315.66 -1689.41 -1200.89 8809.75 -1473.48 -1157.98 8484.37 -1622.52 -1182.43 8657.2 -1547.09 -945.439 8259.94 -1525.99 -1065.32 9053.83 -1144.98 -961.081 8335.6 -1496.69 -1060.05 8995.73 -1180.24 -984.588 8458.29 -1446.7 -1049.47 8894.99 -1237.65 -1010.13 8607.71 -1381.21 -1032.68 8760.43 -1308.17 -1058.54 8130.65 -1716.96 -1186.5 9005.56 -1325.26 -1075.05 8213.68 -1687.51 -1180.64 8941.35 -1362.19 -1099.9 8348.5 -1636.97 -1169.07 8830.03 -1422.07 -1126.96 8513.01 -1570.22 -1150.99 8681.44 -1495.14 -981.416 8221.55 -1586.25 -1103.82 9040.7 -1201.25 -997.352 8299.5 -1556.83 -1098.37 8980.72 -1237.07 -1021.3 8425.97 -1506.55 -1087.51 8876.7 -1295.32 -1047.32 8580.12 -1440.53 -1070.33 8737.76 -1366.73 -1020.97 8176.3 -1652.84 -1146.2 9023.66 -1264.08 -1037.22 8256.82 -1623.37 -1140.55 8961.56 -1300.49 -1061.63 8387.52 -1572.89 -1129.34 8853.86 -1359.6 -1088.18 8546.93 -1506.43 -1111.71 8710.04 -1431.91 -842.029 6867.38 -2056.31 -1107.05 8013.89 -1831.34 -869.659 6970.68 -2045.69 -1088.78 7924.44 -1858.85 -913.086 7140.57 -2024.51 -1057.02 7771.87 -1901.09 -963.951 7351.65 -1991.49 -1014.05 7572.51 -1948.37 -1073.43 6243.05 -2397.37 -1332.3 7598.16 -2230.15 -1099.74 6363.13 -2393.33 -1313.68 7490.38 -2254.55 -1141.28 6561.4 -2382.44 -1281.74 7307.5 -2290.85 -1190.32 6809.15 -2361.24 -1239.19 7070.17 -2329.26 -859.565 6825.32 -2085.9 -1125.44 7987.49 -1864.08 -887.237 6929.92 -2075.68 -1107.06 7896.71 -1891.46 -930.743 7101.98 -2055.11 -1075.13 7741.91 -1933.43 -981.727 7315.85 -2022.77 -1031.98 7539.73 -1980.26 -1051.75 6306.97 -2368.66 -1313.01 7641.51 -2194.35 -1078.38 6425.44 -2363.86 -1294.31 7535.59 -2219.18 -1120.4 6620.95 -2351.77 -1262.17 7355.75 -2256.27 -1169.96 6865.13 -2329.16 -1219.29 7122.19 -2295.81 -889.589 6750.93 -2134.64 -1156.48 7939.67 -1918.64 -917.285 6857.71 -2125.14 -1137.94 7846.61 -1945.76 -960.85 7033.43 -2105.67 -1105.78 7688 -1987.19 -1011.95 7252.02 -2074.56 -1062.39 7481.02 -2033.17 -1016.54 6408.66 -2321.01 -1280.8 7710.55 -2136.03 -1043.59 6524.55 -2315.05 -1262.02 7607.55 -2161.49 -1086.24 6715.68 -2301.13 -1229.66 7432.52 -2199.75 -1136.48 6954.16 -2276.38 -1186.38 7204.94 -2240.98 -929.129 6648.81 -2195.69 -1196.47 7872.41 -1988.19 -956.758 6758.42 -2187.2 -1177.77 7776.32 -2014.89 -1000.25 6938.93 -2169.3 -1145.4 7612.69 -2055.5 -1051.33 7163.68 -2139.96 -1101.84 7399.39 -2100.21 -973.481 6529.27 -2260.71 -1240 7792.23 -2063.96 -1000.89 6642.05 -2253.44 -1221.2 7692.68 -2090.08 -1044.08 6827.92 -2237.47 -1188.76 7523.34 -2129.6 -1094.88 7059.58 -2210.34 -1145.22 7302.87 -2172.66 -646.721 7286.62 -1711.71 -893.528 8267.11 -1465.55 -672.917 7375.95 -1697.71 -876.965 8191.8 -1493.25 -713.932 7522.54 -1671.56 -847.954 8062.72 -1536.49 -761.681 7704.06 -1633.4 -808.324 7893.07 -1586.21 -833.67 6887.05 -2041.91 -1098.23 8026.06 -1815.5 -861.274 6989.74 -2031.1 -1080.01 7937.25 -1843.07 -904.652 7158.57 -2009.65 -1048.34 7785.74 -1885.43 -955.448 7368.32 -1976.31 -1005.46 7587.73 -1932.91 -661.301 7258.66 -1738.73 -909.828 8251.22 -1493.28 -687.631 7349.04 -1724.92 -893.108 8174.9 -1521.06 -728.876 7497.36 -1699.05 -863.843 8044.13 -1564.37 -776.923 7681.03 -1661.13 -823.896 7872.35 -1614.08 -816.589 6926.8 -2012.44 -1080.07 8050.61 -1783.25 -844.123 7028.22 -2001.27 -1061.98 7963.1 -1810.91 -887.381 7194.94 -1979.26 -1030.49 7813.75 -1853.51 -938.011 7401.99 -1945.32 -987.821 7618.47 -1901.38 -686.081 7209.7 -1783.87 -937.455 8222.77 -1539.96 -712.641 7301.84 -1770.42 -920.482 8144.71 -1567.83 -754.272 7453.07 -1745.04 -890.8 8011.07 -1611.2 -802.817 7640.41 -1707.59 -850.335 7835.65 -1660.83 -788.678 6990.47 -1964.24 -1050.11 8089.91 -1730.95 -816.061 7089.87 -1952.52 -1032.23 8004.48 -1758.75 -859.064 7253.2 -1929.67 -1001.07 7858.6 -1801.65 -909.357 7455.91 -1894.81 -958.784 7667.71 -1850.08 -718.392 7143.37 -1841.57 -973.281 8183.27 -1600.26 -745.243 7237.79 -1828.62 -955.998 8102.93 -1628.18 -787.359 7392.8 -1803.95 -925.807 7965.5 -1671.53 -836.521 7584.92 -1767.19 -884.709 7785.29 -1720.92 -754.241 7066.78 -1904.49 -1012.69 8136.78 -1666.86 -781.386 7163.72 -1892.13 -995.084 8053.86 -1694.75 -823.99 7322.95 -1868.34 -964.376 7912.16 -1737.94 -873.773 7520.42 -1832.48 -922.636 7726.56 -1786.92 -552.567 8561.07 -890.476 -641.885 9138.2 -578.505 -564.731 8616.03 -864.785 -638.467 9095.95 -605.707 -582.879 8705.18 -821.749 -631.222 9022.69 -650.627 -602.336 8813.79 -766.716 -619.139 8924.84 -706.936 -707.981 8460.69 -1134.99 -808.078 9111.25 -790.183 -721.196 8523.32 -1107.68 -803.793 9064.41 -821.301 -741.001 8624.7 -1061.46 -795.12 8982.76 -872.275 -762.424 8747.79 -1001.52 -781.227 8873.04 -935.425 -564.835 8553.67 -909.803 -654.775 9136.97 -594.794 -577.074 8609.21 -883.93 -651.29 9094.36 -622.325 -595.323 8699.33 -840.558 -643.953 9020.39 -667.764 -614.88 8809.18 -785.043 -631.777 8921.48 -724.678 -693.985 8470.09 -1112.47 -792.748 9114.26 -770.233 -707.072 8532.03 -1085.28 -788.537 9067.9 -801.036 -726.659 8632.36 -1039.3 -780.013 8987.05 -851.526 -747.812 8754.25 -979.738 -766.343 8878.34 -914.135 -585.64 8540.82 -942.38 -676.689 9134.36 -622.44 -598 8597.36 -916.233 -673.088 9091.17 -650.526 -616.421 8689.15 -872.342 -665.586 9016.05 -696.833 -636.159 8801.06 -816.063 -653.233 8915.44 -754.748 -671.015 8485.44 -1075.93 -767.786 9119.1 -738.03 -683.914 8546.24 -1048.93 -763.7 9073.48 -768.293 -703.188 8644.81 -1003.34 -755.412 8993.88 -817.957 -723.949 8764.69 -944.413 -742.081 8886.84 -879.644 -612.671 8523.68 -984.524 -705.297 9130.19 -658.54 -625.186 8581.55 -958.07 -701.542 9086.25 -687.337 -643.841 8675.51 -913.582 -693.809 9009.7 -734.748 -663.844 8790.03 -856.393 -681.191 8906.98 -793.915 -642.513 8504.29 -1031.1 -737.112 9124.79 -698.853 -655.212 8563.66 -1004.36 -733.188 9080.02 -728.414 -674.157 8659.99 -959.283 -725.179 9001.92 -777.002 -694.51 8777.3 -901.174 -712.221 8896.96 -837.49 -481.941 7577.3 -1406.63 -708.016 8425.13 -1159.15 -506.43 7654.94 -1391.11 -693.45 8360.09 -1185.5 -544.661 7782.06 -1362.99 -667.591 8248.7 -1227.11 -588.908 7939.1 -1323.36 -631.712 8102.33 -1275.88 -639.743 7299.77 -1698.67 -885.719 8274.49 -1452.21 -665.875 7388.6 -1684.57 -869.232 8199.66 -1479.87 -706.782 7534.36 -1658.29 -840.347 8071.38 -1523.06 -754.388 7714.84 -1620.02 -800.87 7902.76 -1572.78 -494.364 7556.94 -1429.94 -722.166 8414.89 -1182.21 -519.036 7635.45 -1414.46 -707.459 8349.1 -1208.66 -557.543 7764.04 -1386.4 -681.376 8236.38 -1250.4 -602.104 7922.97 -1346.8 -645.218 8088.2 -1299.27 -625.46 7326.45 -1672.05 -869.732 8289.43 -1425.07 -651.465 7414.25 -1657.76 -853.408 8215.57 -1452.63 -692.153 7558.32 -1631.23 -824.785 8088.92 -1495.72 -739.47 7736.68 -1592.75 -785.627 7922.35 -1545.41 -515.433 7521.78 -1469.15 -746.07 8396.69 -1221.11 -540.379 7601.75 -1453.79 -731.112 8329.64 -1247.74 -579.311 7732.84 -1425.86 -704.631 8214.68 -1289.72 -624.369 7894.94 -1386.33 -667.994 8063.52 -1338.75 -602.062 7369.53 -1628.72 -843.53 8313.54 -1381.1 -627.863 7455.65 -1614.15 -827.485 8241.2 -1408.48 -668.201 7596.94 -1587.24 -799.307 8117.12 -1451.37 -715.052 7771.85 -1548.45 -760.678 7953.88 -1500.98 -542.82 7474.93 -1519.72 -776.997 8371.68 -1271.5 -568.071 7556.83 -1504.55 -761.697 8302.99 -1298.37 -607.49 7691.15 -1476.87 -734.684 8185.18 -1340.65 -653.147 7857.32 -1437.5 -697.417 8030.19 -1389.9 -573.092 7421.74 -1575.38 -811.042 8342.56 -1327.29 -598.636 7505.79 -1560.49 -795.359 8272.04 -1354.43 -638.539 7643.67 -1533.16 -767.747 8151.06 -1397.04 -684.815 7814.31 -1494.05 -729.782 7991.86 -1446.49 -345.069 7782.58 -1142.5 -546.337 8534.07 -902.848 -366.574 7852.09 -1126.92 -533.035 8477.22 -927.797 -400.225 7965.67 -1099 -509.612 8379.44 -967.398 -439.338 8105.53 -1060.15 -477.419 8250.28 -1014.16 -475.991 7586.95 -1395.41 -701.22 8429.9 -1148.07 -500.386 7664.17 -1379.87 -686.719 8365.23 -1174.37 -538.476 7790.59 -1351.74 -660.965 8254.49 -1215.92 -582.566 7946.72 -1312.1 -625.22 8108.98 -1264.64 -355.234 7769 -1162.86 -558.563 8526.39 -922.258 -376.967 7839.05 -1147.29 -545.163 8469.01 -947.368 -410.985 7953.49 -1119.35 -521.535 8370.37 -987.208 -450.528 8094.37 -1080.4 -489.02 8240.2 -1034.21 -463.868 7606.46 -1372.51 -687.287 8439.65 -1125.5 -488.054 7682.87 -1356.94 -672.912 8375.73 -1151.71 -525.831 7807.89 -1328.79 -647.37 8266.3 -1193.14 -569.575 7962.21 -1289.16 -611.902 8122.53 -1241.75 -372.491 7745.14 -1197.03 -579.303 8513.07 -954.959 -394.629 7816.12 -1181.46 -565.745 8454.72 -980.309 -429.285 7932.05 -1153.47 -541.788 8354.55 -1020.5 -469.566 8074.76 -1114.35 -508.745 8222.53 -1067.88 -444.168 7637.73 -1335.18 -664.407 8455.58 -1088.87 -467.97 7712.86 -1319.6 -650.223 8392.88 -1114.92 -505.17 7835.72 -1291.43 -625.018 8285.56 -1156.14 -548.279 7987.24 -1251.85 -590.022 8144.55 -1204.56 -394.991 7712.71 -1240.94 -606.253 8495.27 -997.236 -417.672 7784.94 -1225.37 -592.5 8435.6 -1022.85 -453.168 7902.9 -1197.31 -568.136 8333.31 -1063.43 -494.396 8048.15 -1158 -534.441 8198.67 -1111.2 -420.013 7675.17 -1289.13 -636.002 8475.14 -1043.94 -443.286 7748.84 -1273.55 -622.035 8413.95 -1069.79 -479.685 7869.21 -1245.42 -597.24 8309.14 -1110.72 -521.914 8017.53 -1205.94 -562.861 8171.36 -1158.86 -632.915 9570.37 -245.733 -560.241 9829.15 14.0946 -628.435 9596.63 -221.23 -568.023 9811.58 -5.49747 -620.263 9638.53 -181.528 -580.312 9780.54 -39.0721 -608.663 9688.41 -133.106 -594.694 9738.03 -83.3479 -803.143 9595.34 -404.938 -724.218 9874.26 -91.0388 -798.496 9624.85 -376.193 -732.977 9856.17 -115.56 -789.928 9671.36 -329.297 -746.673 9823.9 -157.186 -777.588 9725.84 -271.516 -762.482 9779.07 -211.399 -646.37 9571.89 -257.73 -573.215 9831.84 6.69496 -641.867 9598.36 -232.872 -581.034 9814.35 -13.3121 -633.641 9640.59 -192.563 -593.393 9783.34 -47.5703 -621.952 9690.82 -143.342 -607.876 9740.71 -92.6959 -787.713 9592.15 -389.624 -709.318 9868.69 -80.344 -783.064 9621.37 -361.268 -717.946 9850.85 -104.459 -774.496 9667.49 -315.014 -731.475 9818.91 -145.42 -762.179 9721.57 -258.046 -747.147 9774.44 -198.805 -669.138 9574.49 -278.186 -595.145 9836.57 -6.13993 -664.598 9601.36 -252.745 -603.044 9819.18 -26.8435 -656.286 9644.19 -211.436 -615.541 9788.2 -62.2437 -644.456 9695.03 -160.898 -630.201 9745.38 -108.782 -762.476 9587.48 -365.04 -684.983 9860.41 -63.4079 -757.833 9616.21 -337.308 -693.414 9842.85 -86.8364 -749.285 9661.65 -292.098 -706.684 9811.34 -126.677 -737.029 9715.07 -236.463 -722.134 9767.36 -178.678 -698.668 9578.07 -305.079 -623.564 9843.19 -23.4121 -694.085 9605.51 -278.905 -631.596 9825.87 -45.0039 -685.676 9649.15 -236.337 -644.304 9794.86 -81.8543 -673.681 9700.81 -184.144 -659.205 9751.76 -130.178 -731.271 9582.52 -335.359 -654.934 9851.41 -43.3662 -726.65 9610.61 -308.389 -663.152 9834.04 -65.9126 -718.156 9655.18 -264.465 -676.13 9802.86 -104.318 -706.01 9707.75 -210.496 -691.308 9759.37 -154.551 -817.435 9131.95 -784.749 -812.792 9582.19 -426.664 -820.703 9176.8 -753.367 -816.686 9550.71 -456.04 -824.553 9248.61 -701.624 -821.766 9495.59 -505.277 -826.682 9334.6 -636.895 -825.677 9420.88 -568.311 -1011.92 9093.69 -1047.28 -1009.92 9623.04 -639.729 -1015.75 9146.66 -1012.52 -1013.8 9586.57 -674.096 -1020.34 9231.52 -954.812 -1018.82 9522.33 -731.309 -1023.13 9333.08 -881.93 -1022.54 9434.73 -803.856 -833.1 9129.03 -805.078 -828.51 9585.38 -442.692 -836.415 9174.43 -773.376 -832.403 9553.54 -472.471 -840.308 9247.2 -721.081 -837.494 9497.71 -522.366 -842.451 9334.42 -655.617 -841.428 9421.96 -586.205 -994.684 9096.7 -1022.6 -992.283 9618.48 -619.136 -998.45 9148.89 -988.114 -996.149 9582.59 -653.084 -1002.94 9232.53 -930.898 -1001.17 9519.31 -709.631 -1005.61 9332.69 -858.685 -1004.94 9432.95 -781.391 -859.513 9123.83 -839.502 -855.081 9590.5 -470.009 -862.9 9170.24 -807.29 -858.966 9558.08 -500.476 -866.869 9244.68 -754.107 -864.062 9501.09 -551.482 -869.045 9333.98 -687.447 -868.015 9423.61 -616.667 -966.298 9102.03 -982.761 -963.309 9611.69 -586.143 -969.972 9152.95 -948.734 -967.164 9576.66 -619.382 -974.321 9234.6 -892.326 -972.199 9514.85 -674.807 -976.835 9332.45 -821.226 -976.031 9430.44 -745.241 -893.575 9116.85 -884.33 -889.467 9596.93 -505.924 -897.05 9164.62 -851.508 -893.337 9563.73 -537.282 -901.121 9241.3 -797.244 -898.421 9505.27 -589.718 -903.368 9333.31 -729.11 -902.366 9425.6 -656.616 -930.894 9109.12 -934.281 -927.289 9604.17 -546.399 -934.466 9158.48 -900.828 -931.146 9570.09 -578.73 -938.666 9237.69 -845.445 -936.205 9509.96 -632.716 -941.028 9332.68 -775.762 -940.105 9427.89 -701.451 -643.295 9158.16 -565.287 -634.958 9557.34 -257.768 -645.745 9198.41 -538.134 -638.763 9529.66 -282.773 -648.484 9262.59 -493.438 -643.824 9481.16 -324.789 -649.612 9339.03 -437.662 -647.973 9415.34 -378.749 -809.909 9133.31 -774.999 -805.249 9580.62 -419.004 -813.154 9177.9 -743.776 -809.143 9549.31 -448.188 -816.981 9249.25 -692.307 -814.215 9494.53 -497.111 -819.105 9334.66 -627.938 -818.111 9420.34 -559.757 -656.221 9157.08 -581.413 -648.42 9558.76 -269.933 -658.746 9197.63 -553.924 -652.23 9530.87 -295.283 -661.606 9262.23 -508.673 -657.271 9482.06 -337.865 -662.871 9339.12 -452.197 -661.35 9415.85 -392.532 -794.548 9136.09 -755.208 -789.82 9577.59 -403.501 -797.741 9180.17 -724.319 -793.711 9546.64 -432.297 -801.515 9250.64 -673.42 -798.768 9492.56 -480.584 -803.619 9334.91 -609.795 -802.639 9419.39 -542.439 -678.196 9154.73 -608.782 -671.201 9561.17 -290.666 -680.846 9195.77 -580.723 -675.024 9532.88 -316.584 -683.898 9261.12 -534.532 -680.042 9483.44 -360.103 -685.375 9338.87 -476.877 -684.025 9416.45 -415.949 -769.53 9140.57 -723.278 -764.58 9573.19 -378.615 -772.627 9183.89 -692.957 -768.461 9542.85 -406.79 -776.293 9253.05 -643.016 -773.496 9489.88 -454.052 -778.331 9335.61 -580.627 -777.344 9418.28 -514.625 -706.882 9150.89 -644.525 -700.748 9564.46 -317.908 -709.686 9192.59 -615.732 -704.59 9535.58 -344.546 -712.965 9258.99 -568.331 -709.597 9485.16 -389.256 -714.673 9338.03 -509.156 -713.496 9416.95 -446.608 -738.782 9145.87 -684.454 -733.366 9568.56 -348.569 -741.743 9188.36 -654.867 -737.229 9538.95 -375.99 -745.239 9256.07 -606.15 -742.244 9487.29 -422.001 -747.145 9336.77 -545.32 -746.095 9417.46 -481 </DataArray> 
<DataArray  type="Float64"  Name="u" NumberOfComponents="3" format="ascii"> 
-0.10059 0.0231131 0 -0.10144 0.000465159 0 -0.100736 0.0211835 0 -0.101437 0.0023844 0 -0.100946 0.0179821 0 -0.101405 0.00557269 0 -0.101156 0.0139396 0 -0.101315 0.0096062 0 -0.0934626 0.0250095 0 -0.0939061 0.00049854 0 -0.0935346 0.0228949 0 -0.0939011 0.00255672 0 -0.0936393 0.0194003 0 -0.09388 0.0059809 0 -0.093746 0.0150091 0 -0.0938298 0.0103244 0 -0.100277 0.0232155 0 -0.101099 0.000466917 0 -0.100417 0.0212764 0 -0.101095 0.00239358 0 -0.100619 0.0180596 0 -0.101063 0.00559473 0 -0.100822 0.0139982 0 -0.100976 0.0096454 0 -0.0945235 0.0247504 0 -0.0950077 0.000493866 0 -0.0946022 0.0226617 0 -0.0950018 0.00253276 0 -0.0947165 0.0192075 0 -0.0949784 0.00592468 0 -0.0948327 0.0148637 0 -0.0949237 0.0102263 0 -0.099699 0.0233948 0 -0.100471 0.00046999 0 -0.0998297 0.0214389 0 -0.100466 0.00240959 0 -0.100018 0.0181949 0 -0.100434 0.00563314 0 -0.100207 0.0141004 0 -0.100352 0.00971369 0 -0.0960343 0.0243758 0 -0.0965837 0.000487155 0 -0.0961242 0.0223243 0 -0.096577 0.0024983 0 -0.0962543 0.0189286 0 -0.0965505 0.00584365 0 -0.0963861 0.0146534 0 -0.0964889 0.0100846 0 -0.0988061 0.0236518 0 -0.0995109 0.000474419 0 -0.098924 0.0216714 0 -0.0995047 0.00243259 0 -0.0990942 0.0183879 0 -0.0994739 0.00568809 0 -0.0992653 0.0142459 0 -0.0993971 0.00981106 0 -0.0975578 0.0239867 0 -0.098185 0.000480266 0 -0.0976615 0.0219737 0 -0.0981781 0.00246283 0 -0.0978113 0.0186384 0 -0.098149 0.00575988 0 -0.0979624 0.0144347 0 -0.0980795 0.00993764 0 -0.0362877 0.192365 0 -0.0437103 0.173495 0 -0.0368896 0.190774 0 -0.0430517 0.17511 0 -0.0379012 0.188128 0 -0.0419694 0.177787 0 -0.039201 0.184773 0 -0.0406218 0.181163 0 -0.054271 0.213864 0 -0.0610939 0.197259 0 -0.0548674 0.212524 0 -0.0605302 0.198746 0 -0.0558503 0.210273 0 -0.059588 0.201181 0 -0.0570804 0.207376 0 -0.0583855 0.204202 0 -0.0367194 0.193077 0 -0.0441107 0.174105 0 -0.0373182 0.191481 0 -0.043454 0.175733 0 -0.0383246 0.188825 0 -0.0423754 0.17843 0 -0.0396182 0.185457 0 -0.0410329 0.181826 0 -0.0509399 0.210282 0 -0.0578376 0.192963 0 -0.0515309 0.208876 0 -0.0572555 0.194504 0 -0.0525097 0.206517 0 -0.0562878 0.197033 0 -0.053743 0.203488 0 -0.0550621 0.200176 0 -0.0376244 0.19448 0 -0.0449573 0.175376 0 -0.0382178 0.19288 0 -0.0443048 0.177022 0 -0.0392154 0.190215 0 -0.0432336 0.179747 0 -0.040498 0.186828 0 -0.0419012 0.183173 0 -0.0464307 0.205312 0 -0.0534412 0.187111 0 -0.0470165 0.203821 0 -0.0528345 0.188717 0 -0.0479926 0.201325 0 -0.0518321 0.191357 0 -0.0492332 0.19813 0 -0.0505738 0.19465 0 -0.0393428 0.196863 0 -0.0465889 0.177733 0 -0.0399305 0.195271 0 -0.0459447 0.179392 0 -0.0409176 0.192614 0 -0.0448873 0.182133 0 -0.0421856 0.189232 0 -0.0435717 0.185572 0 -0.042281 0.200521 0 -0.0494153 0.181662 0 -0.0428654 0.198964 0 -0.0487863 0.183312 0 -0.0438443 0.19636 0 -0.0477519 0.18603 0 -0.0450971 0.193037 0 -0.0464615 0.18943 0 -0.12377 0.0323998 0 -0.125865 0.000653774 0 -0.124107 0.0296809 0 -0.125855 0.00334821 0 -0.124605 0.025183 0 -0.125765 0.00781565 0 -0.125119 0.0195196 0 -0.125526 0.0134584 0 -0.11669 0.0283759 0 -0.118645 0.00057174 0 -0.117006 0.0259902 0 -0.118632 0.0029283 0 -0.117471 0.0220457 0 -0.118546 0.00683648 0 -0.117948 0.0170827 0 -0.118324 0.0117749 0 -0.123109 0.0320577 0 -0.125188 0.000646812 0 -0.123444 0.0293672 0 -0.125178 0.00331256 0 -0.123938 0.0249164 0 -0.125088 0.00773251 0 -0.124448 0.0193126 0 -0.124851 0.0133154 0 -0.117232 0.0287148 0 -0.119195 0.000578663 0 -0.117549 0.026301 0 -0.119182 0.00296372 0 -0.118015 0.0223099 0 -0.119095 0.00691902 0 -0.118495 0.0172879 0 -0.118872 0.0119167 0 -0.122036 0.0314888 0 -0.124091 0.000635228 0 -0.122367 0.0288454 0 -0.124079 0.00325326 0 -0.122855 0.0244729 0 -0.123991 0.00759418 0 -0.123359 0.0189681 0 -0.123757 0.0130775 0 -0.118156 0.0292797 0 -0.120135 0.000590197 0 -0.118476 0.0268191 0 -0.120121 0.00302275 0 -0.118945 0.0227503 0 -0.120034 0.0070566 0 -0.119428 0.0176301 0 -0.119809 0.0121532 0 -0.120723 0.0307689 0 -0.12275 0.000620563 0 -0.12105 0.0281851 0 -0.122738 0.00317818 0 -0.121531 0.0239116 0 -0.122649 0.00741907 0 -0.122027 0.0185322 0 -0.122419 0.0127764 0 -0.119368 0.0299968 0 -0.121368 0.000604827 0 -0.119691 0.0274769 0 -0.121355 0.00309763 0 -0.120166 0.0233096 0 -0.121267 0.00723121 0 -0.120654 0.0180646 0 -0.12104 0.0124534 0 -0.117635 0.0659876 0 -0.123596 0.0337208 0 -0.118261 0.0632107 0 -0.123219 0.0364452 0 -0.119255 0.0586219 0 -0.122535 0.0409684 0 -0.120426 0.0528536 0 -0.121573 0.0466924 0 -0.110835 0.0579209 0 -0.116527 0.0295355 0 -0.111436 0.0554746 0 -0.11617 0.0319276 0 -0.11239 0.0514331 0 -0.115522 0.0359016 0 -0.113512 0.0463549 0 -0.114607 0.0409341 0 -0.117007 0.0653008 0 -0.122937 0.033365 0 -0.11763 0.0625521 0 -0.122561 0.0360611 0 -0.118619 0.0580101 0 -0.121882 0.0405375 0 -0.119785 0.0523007 0 -0.120926 0.0462026 0 -0.111361 0.0586009 0 -0.117068 0.0298879 0 -0.111963 0.0561267 0 -0.11671 0.0323081 0 -0.112919 0.0520391 0 -0.11606 0.0363284 0 -0.114044 0.0469027 0 -0.115143 0.0414193 0 -0.115985 0.0641595 0 -0.121866 0.0327732 0 -0.116604 0.0614577 0 -0.121494 0.0354223 0 -0.117585 0.0569932 0 -0.120821 0.039821 0 -0.118742 0.0513816 0 -0.119873 0.0453883 0 -0.112256 0.0597335 0 -0.117991 0.0304755 0 -0.112861 0.057213 0 -0.117631 0.0329423 0 -0.113821 0.0530486 0 -0.116978 0.0370398 0 -0.114951 0.0478153 0 -0.116055 0.0422279 0 -0.114729 0.0627168 0 -0.120555 0.0320244 0 -0.115342 0.0600742 0 -0.120188 0.0346141 0 -0.116316 0.0557076 0 -0.119522 0.0389146 0 -0.117462 0.0502192 0 -0.118584 0.0443583 0 -0.113426 0.0611704 0 -0.119202 0.0312214 0 -0.114035 0.0585911 0 -0.118839 0.0337474 0 -0.115001 0.0543293 0 -0.11818 0.0379428 0 -0.116138 0.0489732 0 -0.11725 0.043254 0 -0.0525982 0.281757 0 -0.0633527 0.275746 0 -0.0535108 0.281228 0 -0.0624355 0.276244 0 -0.0550255 0.280359 0 -0.060915 0.277074 0 -0.0569402 0.279276 0 -0.0589964 0.27813 0 -0.0466222 0.25017 0 -0.0566388 0.24233 0 -0.0474721 0.249471 0 -0.0557844 0.24297 0 -0.0488829 0.248327 0 -0.0543681 0.24404 0 -0.0506661 0.246906 0 -0.0525812 0.24541 0 -0.0520751 0.278955 0 -0.0627578 0.272801 0 -0.0529817 0.278412 0 -0.0618468 0.27331 0 -0.0544864 0.277521 0 -0.0603365 0.274159 0 -0.0563883 0.276412 0 -0.0584308 0.275239 0 -0.0471232 0.252747 0 -0.0571956 0.245078 0 -0.0479779 0.252063 0 -0.0563365 0.245704 0 -0.0493966 0.250944 0 -0.0549124 0.246751 0 -0.0511898 0.249555 0 -0.0531155 0.248092 0 -0.0512162 0.274356 0 -0.0617843 0.267961 0 -0.0521131 0.273791 0 -0.0608831 0.268489 0 -0.0536018 0.272863 0 -0.0593892 0.269368 0 -0.0554834 0.271709 0 -0.057504 0.27049 0 -0.0479544 0.257064 0 -0.0581215 0.249672 0 -0.0488173 0.256406 0 -0.0572544 0.250276 0 -0.0502494 0.255328 0 -0.055817 0.251287 0 -0.0520595 0.25399 0 -0.0540033 0.25258 0 -0.0501446 0.268633 0 -0.0605753 0.261925 0 -0.05103 0.268038 0 -0.0596858 0.262477 0 -0.0524993 0.267063 0 -0.0582113 0.263397 0 -0.0543564 0.265851 0 -0.0563507 0.264572 0 -0.0490072 0.262597 0 -0.0592983 0.255541 0 -0.0498807 0.26197 0 -0.0584207 0.25612 0 -0.0513304 0.260942 0 -0.0569659 0.257086 0 -0.0531626 0.259666 0 -0.0551301 0.25832 0 -0.0416023 0.288611 0 -0.0521557 0.282016 0 -0.0424868 0.28802 0 -0.0512451 0.282552 0 -0.0439597 0.287054 0 -0.0497398 0.283449 0 -0.0458298 0.285858 0 -0.0478478 0.2846 0 -0.036399 0.25924 0 -0.0462101 0.250512 0 -0.0372188 0.258462 0 -0.0453621 0.251221 0 -0.0385852 0.257186 0 -0.0439603 0.252409 0 -0.0403224 0.255602 0 -0.0421993 0.253934 0 -0.041152 0.28599 0 -0.0516355 0.279221 0 -0.0420305 0.285383 0 -0.0507309 0.27977 0 -0.0434935 0.284392 0 -0.0492354 0.280691 0 -0.0453511 0.283163 0 -0.0473559 0.281872 0 -0.036839 0.261619 0 -0.0467087 0.253081 0 -0.037664 0.260857 0 -0.0458559 0.253774 0 -0.0390389 0.259608 0 -0.044446 0.254936 0 -0.0407867 0.258059 0 -0.0426748 0.256428 0 -0.0404101 0.281693 0 -0.0507813 0.274633 0 -0.041279 0.281061 0 -0.0498863 0.275206 0 -0.042726 0.280027 0 -0.0484066 0.276166 0 -0.0445635 0.278745 0 -0.046547 0.277398 0 -0.037568 0.265613 0 -0.047536 0.257386 0 -0.0384017 0.264878 0 -0.046675 0.258054 0 -0.0397909 0.263675 0 -0.0452516 0.259173 0 -0.0415563 0.262181 0 -0.0434631 0.26061 0 -0.0394804 0.276357 0 -0.0497153 0.268924 0 -0.0403374 0.275692 0 -0.0488319 0.269527 0 -0.041765 0.274604 0 -0.0473713 0.270538 0 -0.0435782 0.273254 0 -0.0455357 0.271835 0 -0.0384891 0.270743 0 -0.0485837 0.262904 0 -0.0393338 0.270043 0 -0.0477121 0.263539 0 -0.0407413 0.268895 0 -0.0462711 0.264606 0 -0.0425294 0.267472 0 -0.0444603 0.265975 0 -0.0754222 0.11197 0 -0.0843359 0.0918731 0 -0.0762279 0.110282 0 -0.0836292 0.0936153 0 -0.0775465 0.107477 0 -0.0824341 0.0964876 0 -0.0791785 0.103923 0 -0.0808858 0.100088 0 -0.0811637 0.128863 0 -0.0857298 0.104528 0 -0.081591 0.126826 0 -0.08538 0.106634 0 -0.0822838 0.123434 0 -0.0847839 0.110111 0 -0.0831301 0.119127 0 -0.0840029 0.114476 0 -0.0757135 0.112443 0 -0.0844797 0.0923043 0 -0.0765085 0.110753 0 -0.083787 0.0940515 0 -0.0778085 0.107944 0 -0.0826148 0.0969315 0 -0.0794155 0.104383 0 -0.0810943 0.10054 0 -0.0804103 0.125865 0 -0.0856968 0.102416 0 -0.0809046 0.123903 0 -0.0852918 0.104449 0 -0.0817064 0.120637 0 -0.0846015 0.107802 0 -0.0826863 0.116489 0 -0.0836971 0.112009 0 -0.0762525 0.1134 0 -0.0847305 0.0931385 0 -0.0770258 0.111702 0 -0.0840647 0.0948986 0 -0.0782885 0.108878 0 -0.0829363 0.0977989 0 -0.0798462 0.105297 0 -0.0814695 0.101431 0 -0.0792961 0.121768 0 -0.0855833 0.0994908 0 -0.0798821 0.119904 0 -0.0851003 0.101426 0 -0.0808334 0.116804 0 -0.0842776 0.104616 0 -0.0819977 0.112867 0 -0.0832003 0.108613 0 -0.0770553 0.115122 0 -0.0850484 0.0945377 0 -0.07779 0.113398 0 -0.0844257 0.0963277 0 -0.0789872 0.110532 0 -0.0833682 0.0992766 0 -0.08046 0.106896 0 -0.08199 0.102969 0 -0.0781048 0.117927 0 -0.0853578 0.0966799 0 -0.0787766 0.11615 0 -0.0847973 0.0985277 0 -0.0798692 0.113193 0 -0.0838436 0.101572 0 -0.0812095 0.10944 0 -0.0825974 0.105385 0 -0.0739424 0.121384 0 -0.0841747 0.0970567 0 -0.0748067 0.119312 0 -0.0833043 0.0991247 0 -0.0762453 0.115875 0 -0.0818582 0.102555 0 -0.0780688 0.111538 0 -0.0800297 0.106888 0 -0.0724411 0.114231 0 -0.0829064 0.0915238 0 -0.0733323 0.112297 0 -0.0820237 0.0934549 0 -0.0748127 0.10909 0 -0.0805538 0.0966577 0 -0.076684 0.105043 0 -0.0786897 0.100702 0 -0.0737852 0.120715 0 -0.0840382 0.0965296 0 -0.0746517 0.118654 0 -0.0831667 0.0985855 0 -0.0760939 0.115238 0 -0.0817182 0.101996 0 -0.0779215 0.110926 0 -0.0798864 0.106303 0 -0.072536 0.114769 0 -0.0829835 0.0919297 0 -0.0734249 0.112824 0 -0.0821015 0.0938719 0 -0.0749018 0.109598 0 -0.0806332 0.0970933 0 -0.0767693 0.105527 0 -0.0787716 0.101162 0 -0.0735354 0.119626 0 -0.0838228 0.0956753 0 -0.0744057 0.117585 0 -0.0829492 0.0977113 0 -0.0758537 0.114202 0 -0.081497 0.101088 0 -0.0776882 0.109932 0 -0.0796597 0.105354 0 -0.0727082 0.115695 0 -0.083125 0.0926329 0 -0.0735933 0.113731 0 -0.0822444 0.0945939 0 -0.0750644 0.110473 0 -0.0807788 0.0978463 0 -0.0769253 0.106362 0 -0.0789217 0.101954 0 -0.0732403 0.118292 0 -0.083571 0.094635 0 -0.0741153 0.116277 0 -0.0826948 0.0966461 0 -0.0755709 0.112935 0 -0.0812379 0.0999821 0 -0.0774141 0.108718 0 -0.0793939 0.104196 0 -0.0729508 0.116918 0 -0.0833269 0.0935712 0 -0.073831 0.114929 0 -0.0824483 0.0955561 0 -0.0752947 0.111632 0 -0.0809867 0.0988485 0 -0.0771472 0.10747 0 -0.0791357 0.103007 0 -0.108984 0.0227913 0 -0.110842 0.000458413 0 -0.109286 0.020873 0 -0.110832 0.00234833 0 -0.10973 0.0177018 0 -0.110752 0.00548416 0 -0.110185 0.013713 0 -0.110543 0.00944905 0 -0.107405 0.0216887 0 -0.109177 0.000436832 0 -0.107694 0.0198668 0 -0.109167 0.00223766 0 -0.108118 0.016853 0 -0.109091 0.00522511 0 -0.108552 0.0130594 0 -0.108892 0.009001 0 -0.108839 0.0226777 0 -0.110693 0.000456152 0 -0.109141 0.0207691 0 -0.110682 0.00233675 0 -0.109583 0.0176139 0 -0.110603 0.00545709 0 -0.110037 0.0136451 0 -0.110394 0.00940235 0 -0.107532 0.0217597 0 -0.109315 0.00043818 0 -0.107823 0.0199313 0 -0.109304 0.00224459 0 -0.108249 0.0169072 0 -0.109228 0.00524136 0 -0.108686 0.0131008 0 -0.109028 0.00902925 0 -0.108604 0.0224962 0 -0.11045 0.000452552 0 -0.108904 0.0206032 0 -0.110439 0.0023183 0 -0.109345 0.0174737 0 -0.11036 0.00541397 0 -0.109797 0.0135368 0 -0.110152 0.00932794 0 -0.107744 0.021888 0 -0.109544 0.00044064 0 -0.108038 0.0200481 0 -0.109533 0.00225722 0 -0.108467 0.0170054 0 -0.109456 0.00527099 0 -0.108908 0.0131761 0 -0.109254 0.00908066 0 -0.108316 0.0222805 0 -0.11015 0.000448296 0 -0.108615 0.0204063 0 -0.110139 0.00229649 0 -0.109052 0.0173073 0 -0.11006 0.00536295 0 -0.109501 0.0134084 0 -0.109854 0.00923981 0 -0.108017 0.0220676 0 -0.109834 0.000444125 0 -0.108313 0.0202119 0 -0.109823 0.0022751 0 -0.108747 0.0171433 0 -0.109745 0.00531289 0 -0.109192 0.0132821 0 -0.109541 0.00915323 0 -0.0140039 0.256412 0 -0.0186258 0.244485 0 -0.0143912 0.255522 0 -0.0182277 0.245616 0 -0.0150365 0.253992 0 -0.0175689 0.247448 0 -0.0158559 0.251965 0 -0.0167403 0.249679 0 -0.0233991 0.259988 0 -0.0310137 0.252496 0 -0.024048 0.259438 0 -0.0303667 0.253224 0 -0.0251237 0.258491 0 -0.0292933 0.254392 0 -0.0264814 0.257232 0 -0.0279371 0.255801 0 -0.0144106 0.256658 0 -0.0191118 0.244932 0 -0.0148065 0.255785 0 -0.0187091 0.246047 0 -0.0154654 0.254283 0 -0.0180418 0.247851 0 -0.0163008 0.252293 0 -0.0172006 0.250046 0 -0.0219964 0.259625 0 -0.0290764 0.251506 0 -0.0226016 0.25903 0 -0.0284777 0.252294 0 -0.0236045 0.258003 0 -0.0274828 0.25356 0 -0.0248692 0.256638 0 -0.0262234 0.255087 0 -0.0151671 0.25709 0 -0.0200328 0.245743 0 -0.01558 0.256248 0 -0.0196197 0.246826 0 -0.016266 0.254798 0 -0.0189334 0.248577 0 -0.0171338 0.252876 0 -0.0180654 0.250702 0 -0.0199997 0.259048 0 -0.0263491 0.25002 0 -0.0205443 0.258385 0 -0.0258152 0.250894 0 -0.0214464 0.257243 0 -0.0249263 0.252299 0 -0.0225832 0.255723 0 -0.0237985 0.253997 0 -0.0163414 0.257678 0 -0.0215091 0.246914 0 -0.0167832 0.256882 0 -0.021074 0.247947 0 -0.017516 0.255512 0 -0.0203495 0.249612 0 -0.0184406 0.253692 0 -0.0194304 0.251632 0 -0.0179877 0.258362 0 -0.0236531 0.248393 0 -0.0184739 0.257628 0 -0.0231779 0.249354 0 -0.0192796 0.256363 0 -0.0223858 0.250902 0 -0.0202949 0.254682 0 -0.0213798 0.252775 0 -0.00756915 0.262245 0 -0.012745 0.249464 0 -0.00794854 0.261223 0 -0.0122435 0.250605 0 -0.00860283 0.259497 0 -0.0114369 0.252481 0 -0.00947362 0.257265 0 -0.010463 0.254814 0 -0.0071236 0.256789 0 -0.0118011 0.2433 0 -0.00746531 0.255721 0 -0.0113459 0.244516 0 -0.00805485 0.253914 0 -0.0106148 0.246511 0 -0.00884014 0.251569 0 -0.00973369 0.248982 0 -0.00750495 0.261698 0 -0.0126378 0.24885 0 -0.00788094 0.260671 0 -0.0121401 0.249998 0 -0.00852947 0.258937 0 -0.0113399 0.251885 0 -0.00939277 0.256694 0 -0.0103739 0.25423 0 -0.00712916 0.257163 0 -0.011848 0.243727 0 -0.00747381 0.256099 0 -0.0113887 0.244938 0 -0.0080685 0.254297 0 -0.0106512 0.246923 0 -0.00886073 0.25196 0 -0.00976222 0.249383 0 -0.00740698 0.260821 0 -0.0124686 0.247866 0 -0.0077774 0.259788 0 -0.0119774 0.249025 0 -0.00841644 0.25804 0 -0.0111877 0.25093 0 -0.00926736 0.25578 0 -0.0102348 0.253296 0 -0.00715403 0.257824 0 -0.011942 0.244479 0 -0.0075037 0.256765 0 -0.0114761 0.24568 0 -0.00810711 0.254973 0 -0.0107278 0.247649 0 -0.00891104 0.252651 0 -0.00982584 0.250091 0 -0.00730054 0.259773 0 -0.0122724 0.246686 0 -0.00766402 0.258731 0 -0.0117894 0.247859 0 -0.00829122 0.256968 0 -0.0110131 0.249785 0 -0.00912662 0.254687 0 -0.0100768 0.252177 0 -0.00721105 0.258726 0 -0.0120873 0.245502 0 -0.00756728 0.257674 0 -0.0116131 0.24669 0 -0.00818201 0.255896 0 -0.0108513 0.248638 0 -0.00900099 0.253593 0 -0.00993278 0.251057 0 -0.037334 0.207078 0 -0.0463638 0.195286 0 -0.0380957 0.206032 0 -0.0455903 0.196249 0 -0.0393622 0.204316 0 -0.0443089 0.197862 0 -0.0409669 0.20218 0 -0.0426942 0.199927 0 -0.0347626 0.196649 0 -0.0434408 0.183219 0 -0.035491 0.195465 0 -0.0426942 0.184322 0 -0.0367039 0.193519 0 -0.0414585 0.186168 0 -0.0382433 0.191092 0 -0.0399036 0.188527 0 -0.0370984 0.206107 0 -0.0461 0.194184 0 -0.0378574 0.20505 0 -0.0453287 0.195158 0 -0.0391197 0.203315 0 -0.044051 0.196789 0 -0.0407192 0.201156 0 -0.0424411 0.198878 0 -0.0349594 0.197445 0 -0.0436698 0.184162 0 -0.0356909 0.196273 0 -0.0429206 0.185253 0 -0.0369087 0.194348 0 -0.0416808 0.187078 0 -0.0384542 0.191947 0 -0.0401205 0.18941 0 -0.0367126 0.204527 0 -0.045667 0.192383 0 -0.0374672 0.203452 0 -0.0448993 0.193376 0 -0.0387223 0.201686 0 -0.0436278 0.195039 0 -0.0403131 0.199487 0 -0.042026 0.197167 0 -0.0352969 0.198805 0 -0.0440594 0.185764 0 -0.0360334 0.197653 0 -0.0433063 0.186835 0 -0.0372592 0.195762 0 -0.0420598 0.188625 0 -0.0388143 0.193405 0 -0.0404906 0.190914 0 -0.036236 0.202592 0 -0.0451296 0.190163 0 -0.0369849 0.201492 0 -0.0443665 0.191181 0 -0.0382308 0.199686 0 -0.043103 0.192884 0 -0.0398103 0.197437 0 -0.0415116 0.195063 0 -0.0357408 0.200592 0 -0.0445674 0.187851 0 -0.0364833 0.199466 0 -0.0438095 0.188895 0 -0.037719 0.197616 0 -0.0425546 0.190643 0 -0.0392861 0.195312 0 -0.0409746 0.192878 0 -0.0880009 0.170765 0 -0.0979198 0.136818 0 -0.0888244 0.167871 0 -0.0970601 0.139705 0 -0.0902004 0.163075 0 -0.0956388 0.144491 0 -0.0919545 0.157024 0 -0.0938541 0.150536 0 -0.0819672 0.150542 0 -0.0917638 0.120508 0 -0.0827851 0.147985 0 -0.0909209 0.123064 0 -0.0841505 0.143745 0 -0.0895243 0.127302 0 -0.0858882 0.138393 0 -0.0877655 0.132653 0 -0.0874757 0.169022 0 -0.0973748 0.13542 0 -0.0882981 0.166158 0 -0.0965174 0.138277 0 -0.0896721 0.161411 0 -0.0950998 0.143016 0 -0.0914233 0.155421 0 -0.0933192 0.149 0 -0.0824655 0.152235 0 -0.0922626 0.121879 0 -0.0832831 0.149651 0 -0.0914192 0.124462 0 -0.0846481 0.145365 0 -0.0900221 0.128746 0 -0.0863855 0.139956 0 -0.0882629 0.134154 0 -0.0866083 0.166137 0 -0.0964781 0.133103 0 -0.087429 0.163322 0 -0.0956244 0.135912 0 -0.0888 0.158657 0 -0.0942122 0.140572 0 -0.0905469 0.152769 0 -0.0924374 0.146455 0 -0.0832994 0.155056 0 -0.0931016 0.124162 0 -0.0841168 0.152426 0 -0.0922571 0.126791 0 -0.0854818 0.148064 0 -0.0908584 0.13115 0 -0.0872195 0.142559 0 -0.0890978 0.136654 0 -0.0855205 0.16251 0 -0.0953601 0.130182 0 -0.0863395 0.159756 0 -0.0945102 0.132932 0 -0.0877075 0.155191 0 -0.0931037 0.137493 0 -0.0894501 0.14943 0 -0.0913351 0.143251 0 -0.0843646 0.158641 0 -0.0941806 0.127059 0 -0.0851825 0.155951 0 -0.0933339 0.129746 0 -0.0865483 0.151492 0 -0.0919321 0.134202 0 -0.0882877 0.145864 0 -0.0901684 0.139828 0 -0.0784928 0.206022 0 -0.0876032 0.17217 0 -0.0792247 0.203151 0 -0.0867883 0.175063 0 -0.0804577 0.198386 0 -0.0854517 0.179854 0 -0.0820476 0.192364 0 -0.0837918 0.185895 0 -0.0724539 0.181612 0 -0.081572 0.151783 0 -0.0731937 0.179088 0 -0.0807618 0.154337 0 -0.0744362 0.174897 0 -0.0794316 0.158567 0 -0.0760321 0.169596 0 -0.0777764 0.163895 0 -0.0779716 0.203902 0 -0.0870786 0.170412 0 -0.0787041 0.201063 0 -0.0862647 0.173274 0 -0.0799377 0.19635 0 -0.0849295 0.178016 0 -0.0815276 0.190393 0 -0.083271 0.183993 0 -0.0729614 0.183644 0 -0.0820705 0.153489 0 -0.0737001 0.181093 0 -0.0812607 0.156072 0 -0.0749409 0.176856 0 -0.0799314 0.160347 0 -0.0765349 0.171496 0 -0.0782775 0.165733 0 -0.0771105 0.200404 0 -0.0862119 0.167503 0 -0.0778439 0.197615 0 -0.0853995 0.170317 0 -0.0790784 0.192987 0 -0.0840666 0.174976 0 -0.0806681 0.187136 0 -0.0824102 0.180848 0 -0.0738052 0.187034 0 -0.0829045 0.156333 0 -0.0745425 0.184436 0 -0.0820951 0.158962 0 -0.0757811 0.180121 0 -0.0807664 0.163314 0 -0.0773729 0.174664 0 -0.0791137 0.168796 0 -0.0760289 0.196017 0 -0.0851248 0.163847 0 -0.0767634 0.193291 0 -0.084314 0.166599 0 -0.0779988 0.188767 0 -0.0829833 0.171156 0 -0.0795885 0.183047 0 -0.0813292 0.176899 0 -0.0748752 0.191349 0 -0.0839695 0.159946 0 -0.0756109 0.188689 0 -0.0831597 0.162634 0 -0.0768477 0.184275 0 -0.0818307 0.167084 0 -0.0784379 0.178692 0 -0.080178 0.172691 0 -0.0923992 0.258501 0 -0.111488 0.170246 0 -0.0937299 0.250878 0 -0.109623 0.177624 0 -0.0960779 0.238275 0 -0.106609 0.189922 0 -0.0992745 0.222437 0 -0.102961 0.205553 0 -0.0854694 0.232602 0 -0.104796 0.155113 0 -0.0869109 0.225978 0 -0.102999 0.161664 0 -0.0894046 0.215001 0 -0.100063 0.172552 0 -0.0927184 0.201157 0 -0.0964493 0.186335 0 -0.0917674 0.25626 0 -0.110911 0.169021 0 -0.0931114 0.248732 0 -0.10905 0.176322 0 -0.0954779 0.236282 0 -0.106039 0.188488 0 -0.0986918 0.220634 0 -0.102389 0.203944 0 -0.0860266 0.234779 0 -0.105361 0.156457 0 -0.0874621 0.228079 0 -0.103557 0.163074 0 -0.0899488 0.216976 0 -0.100612 0.174072 0 -0.0932589 0.202979 0 -0.0969915 0.187998 0 -0.0907405 0.252563 0 -0.109958 0.166961 0 -0.0921048 0.245187 0 -0.108105 0.174138 0 -0.0944994 0.232985 0 -0.105101 0.18609 0 -0.0977383 0.217641 0 -0.10145 0.201266 0 -0.0869602 0.238397 0 -0.106298 0.158665 0 -0.0883847 0.231566 0 -0.104484 0.165392 0 -0.0908579 0.220252 0 -0.101524 0.176576 0 -0.0941595 0.205995 0 -0.0978933 0.190745 0 -0.0894777 0.247925 0 -0.108762 0.164312 0 -0.0908648 0.240734 0 -0.10692 0.171337 0 -0.0932899 0.228834 0 -0.103928 0.18303 0 -0.096555 0.213858 0 -0.100279 0.197865 0 -0.0881599 0.242981 0 -0.107485 0.161415 0 -0.0895678 0.23598 0 -0.105656 0.168283 0 -0.0920203 0.224389 0 -0.10268 0.179708 0 -0.095307 0.209793 0 -0.0990387 0.194192 0 -0.134809 0.0798297 0 -0.144954 0.00159344 0 -0.136306 0.0730053 0 -0.144855 0.00816158 0 -0.138577 0.0617859 0 -0.144326 0.0190616 0 -0.141025 0.047766 0 -0.143057 0.0328653 0 -0.126345 0.0735918 0 -0.135294 0.00147509 0 -0.127682 0.0673466 0 -0.13521 0.00755521 0 -0.129703 0.0570538 0 -0.134753 0.0176423 0 -0.131865 0.044153 0 -0.133648 0.0304039 0 -0.134081 0.0793864 0 -0.144112 0.00158571 0 -0.135562 0.0726076 0 -0.144014 0.00812187 0 -0.13781 0.0614588 0 -0.143492 0.018968 0 -0.14023 0.047521 0 -0.142239 0.0327012 0 -0.127053 0.074195 0 -0.136091 0.00148706 0 -0.128402 0.0678972 0 -0.136005 0.00761643 0 -0.130441 0.0575186 0 -0.135543 0.0177851 0 -0.132625 0.0445115 0 -0.134426 0.0306502 0 -0.132874 0.0786094 0 -0.142722 0.00157176 0 -0.134331 0.0719078 0 -0.142626 0.00805025 0 -0.13654 0.0608801 0 -0.142115 0.0187997 0 -0.138917 0.0470846 0 -0.140887 0.032407 0 -0.128233 0.0751714 0 -0.137424 0.00150629 0 -0.129603 0.0687875 0 -0.137337 0.00771486 0 -0.131674 0.0582689 0 -0.136865 0.0180149 0 -0.133894 0.0450893 0 -0.135727 0.0310467 0 -0.131355 0.0775595 0 -0.140979 0.00155228 0 -0.132783 0.0709582 0 -0.140886 0.0079504 0 -0.134945 0.0600897 0 -0.140388 0.0185656 0 -0.137268 0.0464842 0 -0.139191 0.0319998 0 -0.129734 0.0763562 0 -0.139129 0.00152934 0 -0.131131 0.069866 0 -0.139038 0.00783286 0 -0.133245 0.0591755 0 -0.138554 0.0182906 0 -0.135513 0.0457853 0 -0.137388 0.0315232 0 -0.0138881 0.313022 0 -0.0214143 0.304927 0 -0.0144675 0.312352 0 -0.0207133 0.305624 0 -0.0154536 0.311228 0 -0.0195754 0.30678 0 -0.0167437 0.309793 0 -0.0181828 0.308238 0 -0.0112633 0.290284 0 -0.0179422 0.280284 0 -0.0117682 0.289466 0 -0.0173123 0.281158 0 -0.0126325 0.288092 0 -0.0162923 0.282602 0 -0.0137707 0.28633 0 -0.0150488 0.284411 0 -0.013666 0.310973 0 -0.0211197 0.302708 0 -0.0142391 0.310289 0 -0.0204248 0.303421 0 -0.0152148 0.309143 0 -0.0192971 0.304603 0 -0.0164919 0.307679 0 -0.0179172 0.306092 0 -0.0114866 0.292099 0 -0.0182398 0.282257 0 -0.011998 0.291293 0 -0.0176037 0.283116 0 -0.0128728 0.28994 0 -0.0165734 0.284536 0 -0.0140244 0.288205 0 -0.0153166 0.286316 0 -0.0132967 0.307619 0 -0.0206311 0.299077 0 -0.0138593 0.306913 0 -0.0199464 0.299816 0 -0.0148179 0.305731 0 -0.0188353 0.301039 0 -0.0160737 0.304219 0 -0.0174764 0.302579 0 -0.0118574 0.29516 0 -0.0187318 0.28558 0 -0.0123794 0.294374 0 -0.0180857 0.286415 0 -0.0132717 0.293055 0 -0.0170385 0.287795 0 -0.014445 0.291365 0 -0.0157604 0.289527 0 -0.0128289 0.303466 0 -0.0200141 0.294581 0 -0.0133783 0.302734 0 -0.0193419 0.295351 0 -0.0143154 0.301506 0 -0.0182516 0.296626 0 -0.0155445 0.299935 0 -0.0169189 0.298229 0 -0.0123262 0.299115 0 -0.0193512 0.289869 0 -0.0128614 0.298355 0 -0.0186925 0.290672 0 -0.0137754 0.29708 0 -0.0176244 0.292002 0 -0.0149758 0.295447 0 -0.0163199 0.293672 0 -0.00778944 0.320479 0 -0.0136112 0.313345 0 -0.00821929 0.319936 0 -0.0130497 0.314006 0 -0.00895893 0.319006 0 -0.0121459 0.315083 0 -0.00994062 0.31778 0 -0.0110531 0.316409 0 -0.00608906 0.299283 0 -0.0110227 0.290678 0 -0.00644538 0.298635 0 -0.0105365 0.291481 0 -0.00706137 0.297521 0 -0.00975865 0.29279 0 -0.00788469 0.296048 0 -0.0088258 0.294394 0 -0.00764602 0.31857 0 -0.0133922 0.311302 0 -0.00806964 0.318018 0 -0.0128372 0.311975 0 -0.00879878 0.31707 0 -0.0119441 0.313074 0 -0.00976701 0.315822 0 -0.0108649 0.314425 0 -0.00623457 0.300975 0 -0.0112429 0.292487 0 -0.00659712 0.300335 0 -0.0107503 0.293279 0 -0.00722351 0.299235 0 -0.00996176 0.294569 0 -0.00806007 0.297782 0 -0.00901549 0.29615 0 -0.00740747 0.315445 0 -0.013028 0.307958 0 -0.00782072 0.314877 0 -0.0124836 0.308653 0 -0.00853238 0.313902 0 -0.0116083 0.309786 0 -0.00947818 0.312617 0 -0.0105518 0.311177 0 -0.00647573 0.303829 0 -0.0116086 0.295538 0 -0.00684864 0.303203 0 -0.0111054 0.296311 0 -0.00749238 0.302128 0 -0.0102991 0.29757 0 -0.00835109 0.300707 0 -0.00933047 0.299114 0 -0.00710517 0.311574 0 -0.0125667 0.303818 0 -0.00750529 0.310986 0 -0.0120357 0.304539 0 -0.00819482 0.309978 0 -0.0111829 0.305713 0 -0.0091122 0.308647 0 -0.0101551 0.307156 0 -0.00677979 0.307517 0 -0.0120709 0.299481 0 -0.00716582 0.30691 0 -0.0115543 0.300229 0 -0.00783161 0.305866 0 -0.0107256 0.301447 0 -0.00871854 0.304488 0 -0.00972846 0.302943 0 -0.0113105 0.371413 0 -0.0288435 0.365188 0 -0.012509 0.370934 0 -0.027073 0.365725 0 -0.0146231 0.370103 0 -0.0242457 0.366629 0 -0.017512 0.369001 0 -0.0208743 0.36778 0 -0.00969379 0.345954 0 -0.0250208 0.334953 0 -0.0107311 0.345135 0 -0.0234601 0.335931 0 -0.0125652 0.343699 0 -0.0209732 0.337565 0 -0.0150797 0.341778 0 -0.0180171 0.339622 0 -0.0111726 0.369186 0 -0.0284947 0.362515 0 -0.0123562 0.368674 0 -0.0267446 0.363092 0 -0.0144442 0.367785 0 -0.0239504 0.364063 0 -0.0172976 0.366606 0 -0.0206191 0.365297 0 -0.00983243 0.348062 0 -0.0253283 0.337431 0 -0.0108826 0.347268 0 -0.0237518 0.338375 0 -0.0127388 0.345878 0 -0.0212395 0.339951 0 -0.0152822 0.344019 0 -0.018252 0.341936 0 -0.0109445 0.365517 0 -0.027928 0.358125 0 -0.0121041 0.364954 0 -0.0262106 0.358768 0 -0.0141499 0.363972 0 -0.0234693 0.359847 0 -0.0169462 0.362668 0 -0.0202024 0.361218 0 -0.0100614 0.35158 0 -0.0258433 0.341578 0 -0.0111331 0.35083 0 -0.0242401 0.342462 0 -0.0130264 0.349519 0 -0.0216843 0.343941 0 -0.0156188 0.347767 0 -0.0186435 0.345806 0 -0.0106573 0.360931 0 -0.0272315 0.352658 0 -0.0117874 0.360303 0 -0.0255534 0.353381 0 -0.0137818 0.359209 0 -0.0228756 0.354594 0 -0.0165089 0.357753 0 -0.0196861 0.356131 0 -0.0103492 0.356066 0 -0.0265048 0.346882 0 -0.0114488 0.355373 0 -0.0248665 0.347689 0 -0.01339 0.354164 0 -0.0222534 0.349042 0 -0.016046 0.352552 0 -0.0191427 0.350751 0 -0.054557 0.359163 0 -0.0810042 0.354186 0 -0.0567444 0.358742 0 -0.0786921 0.354641 0 -0.0603986 0.358053 0 -0.0748823 0.355371 0 -0.0650595 0.357192 0 -0.0701163 0.356261 0 -0.0478896 0.323656 0 -0.0714143 0.314924 0 -0.0498452 0.322871 0 -0.0693792 0.31566 0 -0.0531124 0.321599 0 -0.0660128 0.31687 0 -0.0572759 0.320036 0 -0.0617822 0.318392 0 -0.0539315 0.356025 0 -0.0800945 0.350704 0 -0.0560964 0.355572 0 -0.0778096 0.351187 0 -0.0597131 0.354832 0 -0.0740432 0.351963 0 -0.0643258 0.353908 0 -0.0693292 0.352912 0 -0.0484076 0.326569 0 -0.072146 0.31814 0 -0.0503803 0.325813 0 -0.0700909 0.318855 0 -0.0536761 0.32459 0 -0.0666924 0.320028 0 -0.0578762 0.323085 0 -0.0624228 0.321499 0 -0.0529213 0.350872 0 -0.0786279 0.344994 0 -0.0550502 0.350366 0 -0.0763865 0.34552 0 -0.0586067 0.349542 0 -0.0726897 0.346371 0 -0.063142 0.348516 0 -0.0680595 0.347415 0 -0.0492836 0.331441 0 -0.0733906 0.323518 0 -0.0512857 0.330736 0 -0.0713009 0.324198 0 -0.0546306 0.329594 0 -0.0678469 0.325308 0 -0.0588937 0.328185 0 -0.0635099 0.326696 0 -0.0516912 0.344452 0 -0.0768474 0.337891 0 -0.0537765 0.343881 0 -0.0746585 0.33847 0 -0.0572604 0.342952 0 -0.0710454 0.33941 0 -0.0617022 0.3418 0 -0.0665162 0.340569 0 -0.0504229 0.33767 0 -0.0750208 0.330396 0 -0.052464 0.337029 0 -0.0728848 0.331029 0 -0.055874 0.335989 0 -0.0693565 0.332059 0 -0.0602209 0.334703 0 -0.0649297 0.333338 0 -0.0922278 0.0691587 0 -0.0974211 0.047365 0 -0.0927533 0.0673297 0 -0.0970636 0.0492474 0 -0.0935909 0.0642868 0 -0.0964358 0.0523569 0 -0.0945876 0.0604266 0 -0.095581 0.0562622 0 -0.0895217 0.0774285 0 -0.0919494 0.0521604 0 -0.0897684 0.0752784 0 -0.091782 0.0543115 0 -0.0901607 0.0717128 0 -0.0914886 0.0578783 0 -0.0906264 0.0672108 0 -0.0910898 0.0623811 0 -0.0921842 0.0694984 0 -0.0972214 0.0475927 0 -0.0926953 0.0676605 0 -0.0968757 0.049485 0 -0.0935092 0.0646026 0 -0.0962681 0.052611 0 -0.0944768 0.0607228 0 -0.0954401 0.0565367 0 -0.0900727 0.0761442 0 -0.0928402 0.0514625 0 -0.0903559 0.0740508 0 -0.0926512 0.0535704 0 -0.0908055 0.0705764 0 -0.0923191 0.0570628 0 -0.0913379 0.0661846 0 -0.0918662 0.0614669 0 -0.0920858 0.0701297 0 -0.0968412 0.0480029 0 -0.0925704 0.0682737 0 -0.0965164 0.0499144 0 -0.0933411 0.0651851 0 -0.095945 0.0530719 0 -0.094256 0.0612662 0 -0.0951651 0.0570376 0 -0.0908027 0.0743369 0 -0.0940811 0.0504665 0 -0.0911398 0.0723213 0 -0.093859 0.052514 0 -0.0916744 0.0689723 0 -0.0934677 0.0559028 0 -0.0923067 0.0647323 0 -0.0929325 0.0601696 0 -0.0918684 0.0711229 0 -0.0962183 0.0486174 0 -0.0923139 0.0692339 0 -0.0959229 0.0505599 0 -0.0930215 0.0660909 0 -0.0954025 0.0537696 0 -0.0938598 0.0621035 0 -0.094691 0.0578022 0 -0.0914465 0.0725496 0 -0.0952856 0.0494562 0 -0.0918412 0.0706071 0 -0.0950259 0.0514448 0 -0.0924674 0.0673765 0 -0.094568 0.0547327 0 -0.093208 0.063281 0 -0.0939412 0.058867 0 -0.0928915 0.0650964 0 -0.1005 0.0440249 0 -0.0936263 0.063297 0 -0.0999468 0.045816 0 -0.0948118 0.060317 0 -0.0989884 0.0487856 0 -0.0962471 0.0565603 0 -0.0977066 0.0525353 0 -0.0926383 0.0660179 0 -0.0992846 0.0450337 0 -0.0932936 0.0642434 0 -0.0988128 0.0468346 0 -0.0943449 0.0612975 0 -0.0979903 0.0498135 0 -0.0956083 0.0575709 0 -0.0968818 0.0535625 0 -0.0928631 0.0650721 0 -0.100406 0.0440411 0 -0.0935927 0.0632775 0 -0.099859 0.0458302 0 -0.0947694 0.060305 0 -0.09891 0.0487958 0 -0.0961933 0.0565566 0 -0.0976402 0.0525395 0 -0.0926599 0.0658539 0 -0.0993997 0.0448931 0 -0.0933231 0.0640799 0 -0.0989202 0.0466907 0 -0.0943878 0.0611355 0 -0.0980847 0.0496645 0 -0.095668 0.0574119 0 -0.0969595 0.053408 0 -0.0928214 0.0650805 0 -0.100248 0.0441024 0 -0.0935416 0.0632928 0 -0.0997106 0.0458894 0 -0.0947024 0.0603307 0 -0.0987784 0.0488505 0 -0.0961056 0.0565938 0 -0.0975298 0.0525868 0 -0.092693 0.0656105 0 -0.099585 0.0446768 0 -0.0933691 0.0638363 0 -0.0990929 0.0464697 0 -0.0944553 0.0608927 0 -0.0982362 0.0494366 0 -0.095763 0.0571719 0 -0.0970839 0.0531732 0 -0.092776 0.0651717 0 -0.100041 0.0442355 0 -0.0934831 0.0633907 0 -0.0995176 0.046022 0 -0.0946216 0.0604385 0 -0.0986084 0.0489812 0 -0.095996 0.0567117 0 -0.0973891 0.0527126 0 -0.0927326 0.0653601 0 -0.09981 0.0444389 0 -0.0934241 0.0635838 0 -0.0993024 0.0462275 0 -0.0945364 0.060638 0 -0.0984197 0.0491888 0 -0.0958774 0.0569167 0 -0.0972341 0.0529205 0 -0.105701 0.0213176 0 -0.10724 0.00043073 0 -0.105958 0.0195347 0 -0.107235 0.00220609 0 -0.106331 0.0165814 0 -0.107174 0.00514987 0 -0.106712 0.0128576 0 -0.107006 0.00886731 0 -0.103605 0.0219524 0 -0.104795 0.000444149 0 -0.103811 0.020123 0 -0.104797 0.00227504 0 -0.104108 0.0170885 0 -0.104757 0.00531122 0 -0.104407 0.0132563 0 -0.104633 0.00914462 0 -0.105544 0.0213389 0 -0.107057 0.000431269 0 -0.105797 0.0195548 0 -0.107052 0.00220883 0 -0.106165 0.0165994 0 -0.106993 0.00515618 0 -0.10654 0.0128723 0 -0.106829 0.00887788 0 -0.103802 0.0218743 0 -0.105021 0.000442612 0 -0.104012 0.0200511 0 -0.105022 0.00226709 0 -0.104316 0.0170272 0 -0.104981 0.00529246 0 -0.104622 0.0132087 0 -0.104854 0.00911198 0 -0.105274 0.0213909 0 -0.10674 0.000432491 0 -0.10552 0.0196036 0 -0.106736 0.00221507 0 -0.105879 0.0166423 0 -0.106681 0.00517061 0 -0.106242 0.0129067 0 -0.106522 0.00890229 0 -0.104122 0.0217513 0 -0.105391 0.000440147 0 -0.104339 0.0199377 0 -0.105391 0.00225438 0 -0.104655 0.0169303 0 -0.105348 0.0052625 0 -0.104972 0.0131333 0 -0.105214 0.00906004 0 -0.104916 0.0214833 0 -0.106319 0.000434542 0 -0.105154 0.0196897 0 -0.106317 0.00222557 0 -0.105498 0.0167171 0 -0.106266 0.00519503 0 -0.105847 0.012966 0 -0.106115 0.00894392 0 -0.104513 0.0216108 0 -0.105847 0.000437255 0 -0.104741 0.0198079 0 -0.105846 0.00223949 0 -0.10507 0.016819 0 -0.105799 0.00522758 0 -0.105403 0.0130462 0 -0.105657 0.00899977 0 -0.023823 0.228608 0 -0.029261 0.211966 0 -0.0242546 0.227256 0 -0.0287609 0.213446 0 -0.0249808 0.224988 0 -0.0279493 0.215875 0 -0.0259185 0.222077 0 -0.0269537 0.218895 0 -0.0391605 0.241803 0 -0.0465246 0.229567 0 -0.0397944 0.240848 0 -0.0459041 0.230696 0 -0.0408424 0.23923 0 -0.044873 0.232532 0 -0.0421599 0.237123 0 -0.0435668 0.234785 0 -0.0243261 0.229236 0 -0.0297346 0.212681 0 -0.0247563 0.227895 0 -0.0292378 0.214157 0 -0.0254797 0.225643 0 -0.0284314 0.216578 0 -0.0264129 0.22275 0 -0.0274421 0.219585 0 -0.0365814 0.239971 0 -0.043445 0.226886 0 -0.0371664 0.238945 0 -0.0428587 0.228088 0 -0.038135 0.237208 0 -0.0418885 0.230045 0 -0.0393563 0.234951 0 -0.0406662 0.232451 0 -0.0253132 0.2304 0 -0.0306989 0.214039 0 -0.0257439 0.229081 0 -0.0302058 0.215504 0 -0.0264669 0.226863 0 -0.0294052 0.217904 0 -0.0273975 0.224009 0 -0.0284219 0.220881 0 -0.033012 0.237307 0 -0.0392402 0.223083 0 -0.0335341 0.236185 0 -0.0386967 0.224382 0 -0.034401 0.234287 0 -0.037803 0.226499 0 -0.0354996 0.231827 0 -0.0366863 0.229108 0 -0.026993 0.232162 0 -0.032445 0.216196 0 -0.0274337 0.230883 0 -0.0319502 0.217634 0 -0.0281712 0.228729 0 -0.0311452 0.219986 0 -0.0291169 0.225951 0 -0.0301537 0.222899 0 -0.0295892 0.234532 0 -0.0353076 0.219276 0 -0.0300592 0.233319 0 -0.0347972 0.220659 0 -0.0308428 0.231272 0 -0.0339633 0.222918 0 -0.031842 0.228625 0 -0.03293 0.225709 0 -0.0180634 0.222932 0 -0.0247327 0.206527 0 -0.0185896 0.221547 0 -0.024125 0.207928 0 -0.0194797 0.219243 0 -0.0231332 0.210252 0 -0.0206342 0.216324 0 -0.0219099 0.213185 0 -0.0197275 0.223628 0 -0.0256797 0.206569 0 -0.0201959 0.222211 0 -0.0251335 0.208052 0 -0.0209878 0.219845 0 -0.0242445 0.2105 0 -0.022015 0.216832 0 -0.0231516 0.213568 0 -0.018128 0.222818 0 -0.0247346 0.206326 0 -0.0186491 0.221427 0 -0.0241321 0.207736 0 -0.0195305 0.219113 0 -0.0231493 0.210075 0 -0.0206737 0.216181 0 -0.0219373 0.213024 0 -0.0195185 0.22342 0 -0.0255249 0.206381 0 -0.0199912 0.222002 0 -0.024974 0.20786 0 -0.0207905 0.219636 0 -0.0240773 0.210302 0 -0.0218273 0.216625 0 -0.0229745 0.213365 0 -0.0182706 0.22271 0 -0.0247718 0.206084 0 -0.018783 0.221311 0 -0.0241783 0.207509 0 -0.0196498 0.218982 0 -0.0232104 0.209871 0 -0.0207743 0.216028 0 -0.0220175 0.212847 0 -0.0191959 0.223126 0 -0.025297 0.206137 0 -0.0196762 0.22171 0 -0.024738 0.207607 0 -0.0204883 0.219346 0 -0.0238276 0.210038 0 -0.0215419 0.21634 0 -0.0227075 0.21309 0 -0.0185098 0.222707 0 -0.0248777 0.205934 0 -0.0190115 0.2213 0 -0.0242957 0.207377 0 -0.01986 0.218955 0 -0.023347 0.209765 0 -0.0209608 0.21598 0 -0.0221782 0.21277 0 -0.0188348 0.222857 0 -0.025062 0.205957 0 -0.0193251 0.221443 0 -0.0244921 0.207415 0 -0.0201544 0.219087 0 -0.0235636 0.209827 0 -0.0212303 0.216093 0 -0.0224204 0.212859 0 -0.0329781 0.188947 0 -0.0411924 0.173477 0 -0.033661 0.187593 0 -0.0404798 0.174755 0 -0.034801 0.185363 0 -0.0393025 0.176891 0 -0.0362532 0.182574 0 -0.0378252 0.179617 0 -0.0332166 0.187532 0 -0.0409562 0.170109 0 -0.0338511 0.186033 0 -0.0402753 0.171573 0 -0.034914 0.183553 0 -0.0391545 0.174011 0 -0.0362743 0.180433 0 -0.0377551 0.177102 0 -0.032918 0.188598 0 -0.0410901 0.172955 0 -0.0335966 0.187231 0 -0.0403803 0.174249 0 -0.0347299 0.184978 0 -0.0392081 0.176411 0 -0.0361739 0.182159 0 -0.0377378 0.179168 0 -0.0331137 0.187436 0 -0.0408865 0.170158 0 -0.0337516 0.185947 0 -0.0402033 0.171609 0 -0.0348199 0.183485 0 -0.0390785 0.174023 0 -0.0361866 0.18039 0 -0.0376737 0.177086 0 -0.0328507 0.188118 0 -0.0409513 0.172185 0 -0.033522 0.186729 0 -0.0402463 0.173506 0 -0.0346437 0.184438 0 -0.0390827 0.175712 0 -0.036074 0.181569 0 -0.0376241 0.178523 0 -0.0329779 0.187361 0 -0.0408107 0.170339 0 -0.033622 0.185891 0 -0.0401235 0.171764 0 -0.0347001 0.183461 0 -0.0389916 0.174139 0 -0.0360783 0.180408 0 -0.0375769 0.177154 0 -0.0328236 0.187683 0 -0.0408338 0.171385 0 -0.0334858 0.186266 0 -0.0401348 0.172741 0 -0.0345928 0.183928 0 -0.0389819 0.175002 0 -0.0360055 0.180997 0 -0.0375382 0.177881 0 -0.0328676 0.187421 0 -0.0407832 0.17074 0 -0.0335202 0.185975 0 -0.0400905 0.172133 0 -0.0346117 0.183589 0 -0.0389488 0.174454 0 -0.036006 0.180594 0 -0.0375205 0.177404 0 -0.108671 0.100381 0 -0.117324 0.0673377 0 -0.109476 0.0975387 0 -0.116669 0.0701235 0 -0.110788 0.0928396 0 -0.115544 0.0747527 0 -0.112398 0.0869293 0 -0.114061 0.0806157 0 -0.102203 0.0882615 0 -0.110536 0.0591104 0 -0.10298 0.0857506 0 -0.109907 0.0615651 0 -0.104246 0.0816005 0 -0.108827 0.0656451 0 -0.105798 0.0763837 0 -0.107399 0.0708143 0 -0.108085 0.099346 0 -0.116697 0.0666371 0 -0.108887 0.0965327 0 -0.116046 0.0693946 0 -0.110192 0.0918808 0 -0.114927 0.0739768 0 -0.111795 0.0860301 0 -0.113451 0.0797803 0 -0.102713 0.0892814 0 -0.111061 0.0598038 0 -0.103492 0.0867427 0 -0.110431 0.0622864 0 -0.104759 0.0825466 0 -0.109348 0.0664125 0 -0.106314 0.0772718 0 -0.107918 0.07164 0 -0.107126 0.0976285 0 -0.115678 0.065473 0 -0.107922 0.0948623 0 -0.115031 0.0681836 0 -0.109219 0.0902886 0 -0.11392 0.0726878 0 -0.110811 0.0845367 0 -0.112455 0.0783928 0 -0.103578 0.0909806 0 -0.111955 0.060959 0 -0.104358 0.0883957 0 -0.111322 0.063488 0 -0.10563 0.0841229 0 -0.110235 0.067691 0 -0.10719 0.0787512 0 -0.1088 0.0730155 0 -0.10594 0.0954596 0 -0.114424 0.0640016 0 -0.10673 0.0927527 0 -0.113783 0.0666528 0 -0.108017 0.0882774 0 -0.112681 0.0710587 0 -0.109596 0.0826499 0 -0.111227 0.0766394 0 -0.1047 0.0931371 0 -0.113124 0.0624245 0 -0.105485 0.0904935 0 -0.112487 0.0650123 0 -0.106763 0.0861234 0 -0.111393 0.0693129 0 -0.108331 0.0806286 0 -0.10995 0.0747607 0 -0.0983375 0.135418 0 -0.108277 0.101762 0 -0.0991986 0.132535 0 -0.107458 0.10461 0 -0.100625 0.127763 0 -0.106085 0.109339 0 -0.102419 0.121752 0 -0.104327 0.11532 0 -0.0921728 0.119269 0 -0.101823 0.089482 0 -0.0930147 0.116716 0 -0.101032 0.092 0 -0.0944062 0.11249 0 -0.0997049 0.0961822 0 -0.0961514 0.107168 0 -0.0980032 0.101475 0 -0.0977913 0.134034 0 -0.107693 0.100713 0 -0.0986497 0.13118 0 -0.106878 0.103533 0 -0.100071 0.126455 0 -0.105511 0.108215 0 -0.101859 0.120504 0 -0.10376 0.114137 0 -0.0926718 0.120626 0 -0.102332 0.0905154 0 -0.0935143 0.118045 0 -0.101541 0.093061 0 -0.0949069 0.113774 0 -0.100211 0.0972891 0 -0.0966538 0.108394 0 -0.0985076 0.102639 0 -0.0968928 0.13174 0 -0.106736 0.0989728 0 -0.0977472 0.128933 0 -0.105927 0.101746 0 -0.0991617 0.124287 0 -0.104569 0.106349 0 -0.100939 0.118434 0 -0.102829 0.112173 0 -0.0935114 0.122886 0 -0.103195 0.0922369 0 -0.0943553 0.12026 0 -0.102401 0.0948287 0 -0.0957506 0.115913 0 -0.101068 0.099133 0 -0.0975013 0.110437 0 -0.0993597 0.104579 0 -0.0957728 0.128848 0 -0.105553 0.0967751 0 -0.0966229 0.1261 0 -0.10475 0.0994886 0 -0.0980296 0.121552 0 -0.103401 0.103994 0 -0.0997965 0.115823 0 -0.101674 0.109694 0 -0.0945916 0.125755 0 -0.104316 0.0944219 0 -0.095438 0.123071 0 -0.103518 0.0970722 0 -0.096838 0.118627 0 -0.102178 0.101473 0 -0.0985954 0.11303 0 -0.100462 0.107042 0 -0.116151 0.112655 0 -0.125497 0.0755664 0 -0.117015 0.109463 0 -0.124785 0.0786914 0 -0.118426 0.104186 0 -0.123565 0.0838849 0 -0.120162 0.0975499 0 -0.121959 0.0904636 0 -0.108957 0.100882 0 -0.11763 0.067677 0 -0.109764 0.0980263 0 -0.116974 0.0704766 0 -0.111079 0.0933042 0 -0.115847 0.0751286 0 -0.112693 0.087365 0 -0.11436 0.0810204 0 -0.115523 0.111692 0 -0.124799 0.0749299 0 -0.116381 0.108528 0 -0.124093 0.078028 0 -0.117782 0.103298 0 -0.122883 0.0831763 0 -0.119506 0.0967215 0 -0.121289 0.0896976 0 -0.10955 0.101913 0 -0.118267 0.0683745 0 -0.110361 0.0990288 0 -0.117607 0.0712023 0 -0.111682 0.0942595 0 -0.116474 0.0759012 0 -0.113304 0.0882607 0 -0.11498 0.0818524 0 -0.114487 0.110074 0 -0.123652 0.0738567 0 -0.115336 0.106959 0 -0.122956 0.0769096 0 -0.116721 0.101807 0 -0.121761 0.0819827 0 -0.118424 0.0953282 0 -0.120187 0.0884083 0 -0.110543 0.103614 0 -0.119339 0.0695238 0 -0.11136 0.100683 0 -0.118673 0.0723983 0 -0.112693 0.0958351 0 -0.117529 0.0771747 0 -0.114329 0.0897377 0 -0.11602 0.0832239 0 -0.113189 0.108001 0 -0.122223 0.0724731 0 -0.114027 0.104946 0 -0.121537 0.0754685 0 -0.115393 0.0998928 0 -0.120361 0.0804459 0 -0.117073 0.0935381 0 -0.11881 0.0867497 0 -0.111811 0.105744 0 -0.120717 0.0709587 0 -0.112638 0.102753 0 -0.120041 0.0738918 0 -0.113986 0.0978062 0 -0.118883 0.0787656 0 -0.115643 0.0915845 0 -0.117355 0.084938 0 -0.105178 0.152087 0 -0.115728 0.114207 0 -0.106082 0.148836 0 -0.114851 0.117408 0 -0.107584 0.143457 0 -0.113383 0.122723 0 -0.109482 0.136687 0 -0.111509 0.12945 0 -0.0986037 0.13609 0 -0.108562 0.10227 0 -0.0994661 0.133193 0 -0.107742 0.105132 0 -0.100895 0.128397 0 -0.106366 0.109884 0 -0.102692 0.122357 0 -0.104604 0.115894 0 -0.104611 0.150754 0 -0.115103 0.113229 0 -0.105511 0.147534 0 -0.114232 0.116401 0 -0.107006 0.142207 0 -0.112773 0.121667 0 -0.108894 0.135501 0 -0.11091 0.128332 0 -0.0991539 0.137472 0 -0.109153 0.103315 0 -0.100019 0.134546 0 -0.108329 0.106205 0 -0.101453 0.129703 0 -0.106947 0.111005 0 -0.103257 0.123602 0 -0.105177 0.117075 0 -0.103673 0.148529 0 -0.114071 0.111589 0 -0.104567 0.14536 0 -0.113209 0.114712 0 -0.10605 0.140118 0 -0.111765 0.119898 0 -0.107922 0.133518 0 -0.10992 0.12646 0 -0.100071 0.139759 0 -0.110142 0.105039 0 -0.100941 0.136784 0 -0.109312 0.107977 0 -0.102384 0.131861 0 -0.107918 0.112855 0 -0.104201 0.12566 0 -0.106135 0.119025 0 -0.102494 0.145696 0 -0.112779 0.109486 0 -0.103379 0.142592 0 -0.111927 0.112549 0 -0.104849 0.137455 0 -0.110501 0.117634 0 -0.106702 0.130986 0 -0.108677 0.124068 0 -0.101236 0.142633 0 -0.111406 0.107198 0 -0.102113 0.139596 0 -0.110566 0.110196 0 -0.103569 0.13457 0 -0.109157 0.115174 0 -0.105402 0.128241 0 -0.107356 0.12147 0 -0.132554 0.0363791 0 -0.13491 0.000734581 0 -0.132929 0.0333283 0 -0.134896 0.00376183 0 -0.133483 0.0282804 0 -0.134791 0.00878029 0 -0.13406 0.0219232 0 -0.134519 0.0151177 0 -0.124094 0.0325654 0 -0.126198 0.000657144 0 -0.124433 0.0298328 0 -0.126187 0.00336546 0 -0.124932 0.0253121 0 -0.126097 0.00785589 0 -0.125449 0.0196198 0 -0.125857 0.0135276 0 -0.131794 0.036075 0 -0.134124 0.000728428 0 -0.132164 0.0330497 0 -0.13411 0.00373033 0 -0.132713 0.0280441 0 -0.134007 0.00870683 0 -0.133283 0.02174 0 -0.133738 0.0149913 0 -0.12477 0.0329054 0 -0.12689 0.000664064 0 -0.125111 0.0301446 0 -0.12688 0.00340088 0 -0.125614 0.025577 0 -0.126789 0.0079385 0 -0.126135 0.0198256 0 -0.126547 0.0136697 0 -0.130547 0.0355603 0 -0.132837 0.000718004 0 -0.130912 0.0325782 0 -0.132824 0.00367697 0 -0.131452 0.027644 0 -0.132723 0.00858238 0 -0.132013 0.0214297 0 -0.132459 0.0147772 0 -0.12591 0.0334648 0 -0.128061 0.000675444 0 -0.126255 0.0306575 0 -0.12805 0.00345914 0 -0.126765 0.0260129 0 -0.127958 0.00807437 0 -0.127293 0.0201639 0 -0.127712 0.0139034 0 -0.129002 0.034894 0 -0.131243 0.000704487 0 -0.12936 0.0319676 0 -0.131231 0.00360779 0 -0.12989 0.0271256 0 -0.131133 0.00842104 0 -0.130439 0.0210275 0 -0.130876 0.0144996 0 -0.127382 0.0341615 0 -0.129575 0.000689608 0 -0.127734 0.0312962 0 -0.129564 0.00353163 0 -0.128253 0.0265554 0 -0.129469 0.00824344 0 -0.128791 0.0205851 0 -0.129218 0.0141942 0 -0.125835 0.0740521 0 -0.132362 0.0378613 0 -0.126517 0.0709374 0 -0.131944 0.0409177 0 -0.1276 0.0657908 0 -0.131191 0.0459917 0 -0.128879 0.0593217 0 -0.130134 0.0524118 0 -0.117942 0.0663203 0 -0.12392 0.033893 0 -0.11857 0.0635297 0 -0.123541 0.0366311 0 -0.119566 0.0589183 0 -0.122855 0.041177 0 -0.120741 0.0531214 0 -0.121891 0.0469296 0 -0.125134 0.0734287 0 -0.131603 0.0375447 0 -0.12581 0.0703407 0 -0.131189 0.0405755 0 -0.126884 0.0652382 0 -0.130443 0.0456069 0 -0.128152 0.0588241 0 -0.129396 0.0519728 0 -0.118581 0.0670041 0 -0.124594 0.0342467 0 -0.119212 0.0641853 0 -0.124213 0.037013 0 -0.120214 0.0595272 0 -0.123522 0.0416055 0 -0.121395 0.0536716 0 -0.122552 0.0474168 0 -0.123983 0.0723772 0 -0.13036 0.0370091 0 -0.12465 0.0693341 0 -0.129952 0.0399967 0 -0.125709 0.0643054 0 -0.129217 0.0449561 0 -0.126959 0.0579838 0 -0.128186 0.0512308 0 -0.119655 0.0681308 0 -0.125732 0.0348287 0 -0.120293 0.0652654 0 -0.125346 0.0376414 0 -0.121305 0.0605302 0 -0.124647 0.0423107 0 -0.122498 0.0545776 0 -0.123667 0.0482189 0 -0.122549 0.0710215 0 -0.128818 0.0363157 0 -0.123205 0.0680356 0 -0.128418 0.0392474 0 -0.124247 0.0631013 0 -0.127696 0.0441142 0 -0.125477 0.0568982 0 -0.126683 0.0502716 0 -0.121037 0.0695373 0 -0.127202 0.0355535 0 -0.121683 0.0666135 0 -0.126809 0.0384241 0 -0.122709 0.0617818 0 -0.1261 0.0431894 0 -0.123919 0.0557076 0 -0.125105 0.0492188 0 -0.0311561 0.296281 0 -0.0411741 0.2889 0 -0.0319785 0.295625 0 -0.0402948 0.289499 0 -0.0333561 0.294549 0 -0.0388463 0.290506 0 -0.0351185 0.293209 0 -0.0370358 0.291798 0 -0.0267814 0.26924 0 -0.0360025 0.25962 0 -0.027534 0.268391 0 -0.0351887 0.260408 0 -0.0287964 0.266996 0 -0.03385 0.261728 0 -0.030415 0.265256 0 -0.0321798 0.263417 0 -0.0307814 0.293855 0 -0.0407268 0.286286 0 -0.0315976 0.293183 0 -0.0398535 0.286901 0 -0.0329648 0.292079 0 -0.0384151 0.287934 0 -0.0347141 0.290706 0 -0.0366175 0.289259 0 -0.0271544 0.271413 0 -0.03644 0.261991 0 -0.0279127 0.270582 0 -0.0356209 0.262762 0 -0.0291845 0.269214 0 -0.0342734 0.264054 0 -0.0308147 0.267509 0 -0.0325919 0.265708 0 -0.0301623 0.289882 0 -0.0399897 0.282002 0 -0.0309682 0.289183 0 -0.0391262 0.282643 0 -0.0323184 0.288034 0 -0.0377041 0.283719 0 -0.0340466 0.286606 0 -0.0359274 0.285099 0 -0.0277715 0.275072 0 -0.0371648 0.265971 0 -0.0285393 0.274267 0 -0.0363369 0.266715 0 -0.0298268 0.272945 0 -0.0349746 0.267962 0 -0.0314765 0.271298 0 -0.0332742 0.269558 0 -0.0293832 0.284956 0 -0.0390657 0.276682 0 -0.0301765 0.284222 0 -0.0382141 0.277356 0 -0.0315058 0.283018 0 -0.0368121 0.278487 0 -0.0332078 0.281518 0 -0.0350609 0.279937 0 -0.0285492 0.279785 0 -0.0380804 0.271086 0 -0.0293291 0.279015 0 -0.0372412 0.271796 0 -0.0306366 0.27775 0 -0.03586 0.272986 0 -0.0323113 0.276174 0 -0.0341354 0.274511 0 -0.0217584 0.304589 0 -0.0307594 0.296601 0 -0.0224752 0.303894 0 -0.0299474 0.297263 0 -0.0236853 0.302747 0 -0.0286186 0.298369 0 -0.0252504 0.301309 0 -0.0269733 0.29978 0 -0.0182518 0.27986 0 -0.0264187 0.269653 0 -0.0188973 0.278984 0 -0.0256771 0.270509 0 -0.0199892 0.277533 0 -0.0244653 0.271935 0 -0.021405 0.275703 0 -0.0229683 0.273748 0 -0.0214608 0.302362 0 -0.0303878 0.294183 0 -0.0221713 0.301652 0 -0.0295822 0.294861 0 -0.0233711 0.300478 0 -0.0282639 0.295995 0 -0.024923 0.299006 0 -0.0266317 0.29744 0 -0.0185523 0.281839 0 -0.026789 0.271819 0 -0.0192039 0.280979 0 -0.0260416 0.272658 0 -0.0203059 0.279553 0 -0.0248202 0.274057 0 -0.0217344 0.277756 0 -0.0233109 0.275836 0 -0.0209673 0.298719 0 -0.0297737 0.290223 0 -0.0216677 0.297983 0 -0.0289784 0.290929 0 -0.0228505 0.296765 0 -0.0276771 0.292108 0 -0.0243809 0.295237 0 -0.0260666 0.29361 0 -0.0190493 0.285175 0 -0.0274014 0.275464 0 -0.0197109 0.284339 0 -0.0266445 0.276275 0 -0.0208295 0.282955 0 -0.025407 0.27763 0 -0.0222787 0.281212 0 -0.0238774 0.279352 0 -0.0203441 0.294208 0 -0.0290008 0.285313 0 -0.0210319 0.293438 0 -0.0282182 0.286054 0 -0.0221936 0.292166 0 -0.0269381 0.28729 0 -0.0236974 0.290568 0 -0.0253543 0.288864 0 -0.0196748 0.289478 0 -0.0281732 0.28016 0 -0.020349 0.288675 0 -0.0274039 0.280937 0 -0.0214885 0.287344 0 -0.0261461 0.282235 0 -0.0229639 0.285671 0 -0.0245905 0.283886 0 -0.0358956 0.327602 0 -0.0469352 0.322546 0 -0.036805 0.327151 0 -0.045969 0.322955 0 -0.0383268 0.326411 0 -0.0443764 0.323642 0 -0.0402713 0.325492 0 -0.0423839 0.324526 0 -0.0313382 0.297466 0 -0.041392 0.290176 0 -0.0321638 0.296818 0 -0.0405097 0.290768 0 -0.0335464 0.295755 0 -0.0390562 0.291762 0 -0.0353153 0.294432 0 -0.0372394 0.293038 0 -0.0354899 0.324926 0 -0.0464341 0.319676 0 -0.0363912 0.324457 0 -0.0454761 0.3201 0 -0.0378996 0.323689 0 -0.043897 0.320814 0 -0.0398272 0.322735 0 -0.0419216 0.321731 0 -0.0317142 0.299923 0 -0.0418426 0.292821 0 -0.0325462 0.299292 0 -0.040954 0.293398 0 -0.0339395 0.298255 0 -0.0394901 0.294365 0 -0.0357217 0.296966 0 -0.0376601 0.295608 0 -0.0348267 0.320534 0 -0.0456184 0.314965 0 -0.0357152 0.320037 0 -0.0446734 0.315416 0 -0.0372021 0.319223 0 -0.043116 0.316173 0 -0.0391026 0.318211 0 -0.0411679 0.317146 0 -0.0323403 0.30404 0 -0.0425954 0.29725 0 -0.0331832 0.303436 0 -0.0416961 0.297801 0 -0.0345945 0.302445 0 -0.0402145 0.298726 0 -0.0363994 0.301212 0 -0.038362 0.299913 0 -0.0340044 0.315073 0 -0.0446124 0.309105 0 -0.0348773 0.314541 0 -0.0436832 0.309588 0 -0.0363385 0.313668 0 -0.0421518 0.3104 0 -0.0382063 0.312584 0 -0.0402364 0.311443 0 -0.0331375 0.309316 0 -0.0435587 0.302921 0 -0.0339946 0.308746 0 -0.0426454 0.303439 0 -0.0354294 0.307812 0 -0.0411403 0.30431 0 -0.0372639 0.306651 0 -0.0392583 0.305428 0 -0.0254489 0.333396 0 -0.0354568 0.327823 0 -0.02625 0.332904 0 -0.0345581 0.32828 0 -0.0276007 0.332096 0 -0.0330857 0.329044 0 -0.0293443 0.331088 0 -0.0312598 0.330022 0 -0.0219029 0.305677 0 -0.03094 0.297782 0 -0.0226227 0.304989 0 -0.030125 0.298436 0 -0.0238379 0.303855 0 -0.028791 0.299529 0 -0.0254094 0.302434 0 -0.0271392 0.300923 0 -0.0251391 0.330932 0 -0.0350549 0.325154 0 -0.0259326 0.330423 0 -0.0341642 0.325628 0 -0.0272705 0.329585 0 -0.032705 0.326422 0 -0.0289978 0.328541 0 -0.0308957 0.327436 0 -0.0222006 0.307933 0 -0.0313129 0.300231 0 -0.0229267 0.307262 0 -0.0304915 0.300869 0 -0.0241524 0.306154 0 -0.0291468 0.301934 0 -0.0257373 0.304767 0 -0.0274815 0.303293 0 -0.0246302 0.32689 0 -0.0343979 0.320777 0 -0.0254113 0.326352 0 -0.0335201 0.321279 0 -0.0267286 0.325467 0 -0.0320821 0.322119 0 -0.0284297 0.324363 0 -0.0302993 0.323194 0 -0.0226944 0.311716 0 -0.0319337 0.304335 0 -0.0234312 0.311071 0 -0.0311014 0.304945 0 -0.0246747 0.310009 0 -0.0297387 0.305965 0 -0.0262821 0.308678 0 -0.0280507 0.307266 0 -0.0239947 0.321864 0 -0.0335832 0.315333 0 -0.0247608 0.32129 0 -0.0327208 0.31587 0 -0.0260531 0.320347 0 -0.0313084 0.31677 0 -0.0277225 0.319168 0 -0.0295578 0.317919 0 -0.0233197 0.316567 0 -0.032724 0.309593 0 -0.0240703 0.315956 0 -0.0318775 0.310169 0 -0.0253369 0.314951 0 -0.0304914 0.311131 0 -0.0269736 0.313693 0 -0.0287738 0.312359 0 -0.05947 0.317634 0 -0.0713102 0.31328 0 -0.0604721 0.317262 0 -0.070297 0.313654 0 -0.0621361 0.316648 0 -0.0686191 0.314271 0 -0.0642413 0.315875 0 -0.0665046 0.315046 0 -0.0528535 0.283125 0 -0.0636436 0.277181 0 -0.0537691 0.282601 0 -0.0627233 0.277674 0 -0.0552888 0.281743 0 -0.0611977 0.278496 0 -0.0572098 0.280673 0 -0.0592728 0.27954 0 -0.0588629 0.314583 0 -0.0705968 0.310094 0 -0.0598563 0.314198 0 -0.0695932 0.310479 0 -0.0615059 0.313564 0 -0.0679309 0.311113 0 -0.0635926 0.312766 0 -0.0658356 0.311911 0 -0.0533828 0.285956 0 -0.0642478 0.280152 0 -0.0543046 0.285446 0 -0.063321 0.280635 0 -0.0558347 0.284609 0 -0.0617847 0.281438 0 -0.057769 0.283565 0 -0.0598463 0.282459 0 -0.0578781 0.309574 0 -0.0694438 0.304863 0 -0.0588578 0.309168 0 -0.0684552 0.305264 0 -0.0604844 0.308499 0 -0.0668175 0.305927 0 -0.0625417 0.30766 0 -0.0647527 0.306763 0 -0.0542705 0.290691 0 -0.0652647 0.285116 0 -0.0552031 0.290203 0 -0.0643267 0.285582 0 -0.0567511 0.289401 0 -0.0627718 0.286356 0 -0.0587081 0.2884 0 -0.0608102 0.287338 0 -0.0566702 0.303335 0 -0.0680364 0.298345 0 -0.0576335 0.302903 0 -0.0670656 0.298767 0 -0.0592328 0.302191 0 -0.0654569 0.299466 0 -0.0612552 0.301299 0 -0.0634282 0.300349 0 -0.0554127 0.296744 0 -0.0665799 0.291453 0 -0.0563596 0.296283 0 -0.0656267 0.291898 0 -0.0579316 0.295525 0 -0.0640469 0.292635 0 -0.059919 0.294577 0 -0.0620541 0.293569 0 -0.0474055 0.322348 0 -0.0589843 0.317815 0 -0.0483768 0.321945 0 -0.0579849 0.318188 0 -0.0499934 0.321286 0 -0.0563334 0.318811 0 -0.0520449 0.320467 0 -0.0542583 0.319604 0 -0.0418216 0.289891 0 -0.0524096 0.28338 0 -0.0427091 0.289308 0 -0.0514961 0.283909 0 -0.0441869 0.288354 0 -0.0499858 0.284795 0 -0.0460631 0.287173 0 -0.0480878 0.285931 0 -0.0469004 0.319471 0 -0.0583814 0.31477 0 -0.0478636 0.319052 0 -0.0573906 0.315157 0 -0.0494665 0.318368 0 -0.0557531 0.315802 0 -0.0515008 0.317519 0 -0.0536955 0.316624 0 -0.0422752 0.292544 0 -0.0529358 0.286205 0 -0.043169 0.291976 0 -0.0520161 0.28672 0 -0.044657 0.291048 0 -0.0504956 0.287583 0 -0.0465461 0.289898 0 -0.0485846 0.288689 0 -0.0460783 0.314748 0 -0.0574032 0.309771 0 -0.0470283 0.314304 0 -0.056426 0.310179 0 -0.0486096 0.313579 0 -0.0548109 0.310861 0 -0.0506163 0.312679 0 -0.0527813 0.311731 0 -0.0430332 0.296985 0 -0.0538183 0.290929 0 -0.0439376 0.296443 0 -0.0528878 0.291422 0 -0.0454432 0.295557 0 -0.0513497 0.292247 0 -0.0473543 0.294458 0 -0.0494165 0.293304 0 -0.0450648 0.308872 0 -0.0562031 0.303545 0 -0.0459991 0.308396 0 -0.0552422 0.303981 0 -0.0475543 0.307618 0 -0.0536537 0.304709 0 -0.049528 0.306654 0 -0.0516575 0.305639 0 -0.0440033 0.302672 0 -0.0549536 0.296969 0 -0.0449217 0.302161 0 -0.0540089 0.297434 0 -0.0464505 0.301328 0 -0.0524472 0.298212 0 -0.048391 0.300294 0 -0.0504846 0.299208 0 -0.0544211 0.152814 0 -0.0646908 0.13325 0 -0.0552929 0.151156 0 -0.0638198 0.134921 0 -0.0567415 0.148404 0 -0.0623722 0.137689 0 -0.0585738 0.144922 0 -0.0605406 0.141182 0 -0.0687526 0.17577 0 -0.0751556 0.15401 0 -0.0693266 0.173981 0 -0.0746401 0.155924 0 -0.0702666 0.170987 0 -0.0737729 0.159073 0 -0.0714324 0.167162 0 -0.0726565 0.163003 0 -0.0548435 0.153354 0 -0.0650811 0.133749 0 -0.0557146 0.151692 0 -0.064215 0.135422 0 -0.0571613 0.148933 0 -0.0627746 0.138196 0 -0.0589897 0.145444 0 -0.0609504 0.141695 0 -0.0662537 0.171517 0 -0.0734948 0.15018 0 -0.0668957 0.169749 0 -0.0729059 0.152044 0 -0.0679504 0.166798 0 -0.0719175 0.155114 0 -0.0692637 0.163036 0 -0.070649 0.158957 0 -0.0556914 0.1545 0 -0.0658331 0.1348 0 -0.056558 0.15283 0 -0.0649789 0.13648 0 -0.0579957 0.150056 0 -0.0635566 0.139267 0 -0.0598102 0.146549 0 -0.0617526 0.142782 0 -0.0628242 0.165756 0 -0.0711629 0.144988 0 -0.0635544 0.164018 0 -0.070477 0.146784 0 -0.0647581 0.161125 0 -0.0693286 0.149752 0 -0.0662639 0.157448 0 -0.0678602 0.153478 0 -0.0571887 0.156693 0 -0.0670607 0.136795 0 -0.0580373 0.155007 0 -0.0662343 0.138495 0 -0.0594432 0.152208 0 -0.0648563 0.141311 0 -0.0612138 0.148668 0 -0.0631045 0.144864 0 -0.0595853 0.16045 0 -0.068869 0.140198 0 -0.0603898 0.158742 0 -0.068098 0.141935 0 -0.0617198 0.155903 0 -0.0668098 0.144812 0 -0.06339 0.152306 0 -0.0651679 0.148434 0 -0.0506841 0.152366 0 -0.0605673 0.131912 0 -0.0514889 0.150652 0 -0.0596923 0.133679 0 -0.0528394 0.147797 0 -0.0582544 0.136598 0 -0.0545719 0.144174 0 -0.0564627 0.140265 0 -0.0512645 0.149732 0 -0.0616031 0.130186 0 -0.0521218 0.148088 0 -0.0607046 0.131869 0 -0.0535541 0.145354 0 -0.0592207 0.134651 0 -0.0553805 0.141887 0 -0.0573595 0.138151 0 -0.0506535 0.151938 0 -0.060586 0.131586 0 -0.0514634 0.150231 0 -0.0597078 0.133344 0 -0.052822 0.147391 0 -0.0582641 0.136248 0 -0.054564 0.143786 0 -0.0564644 0.139896 0 -0.0511389 0.149755 0 -0.0614551 0.130164 0 -0.0519928 0.148108 0 -0.060557 0.131851 0 -0.0534203 0.145368 0 -0.0590744 0.134641 0 -0.0552414 0.141894 0 -0.0572161 0.138149 0 -0.050637 0.151313 0 -0.0606492 0.131124 0 -0.0514553 0.149619 0 -0.0597661 0.132867 0 -0.0528272 0.146801 0 -0.0583133 0.135747 0 -0.054585 0.143225 0 -0.0565008 0.139366 0 -0.0509604 0.149875 0 -0.0612306 0.130193 0 -0.0518083 0.148221 0 -0.060334 0.131889 0 -0.0532264 0.14547 0 -0.058855 0.134694 0 -0.0550373 0.141981 0 -0.0570029 0.138219 0 -0.050676 0.150673 0 -0.0607829 0.130673 0 -0.0515046 0.148995 0 -0.0598943 0.132399 0 -0.0528928 0.146203 0 -0.0584311 0.135252 0 -0.0546696 0.142659 0 -0.0566037 0.138836 0 -0.0507896 0.150172 0 -0.0609877 0.13035 0 -0.0516287 0.148508 0 -0.0600943 0.13206 0 -0.0530332 0.145739 0 -0.0586219 0.134886 0 -0.0548287 0.142226 0 -0.0567804 0.138437 0 -0.0719973 0.109204 0 -0.0825331 0.0880216 0 -0.0729076 0.107404 0 -0.0816578 0.0898281 0 -0.0744145 0.104418 0 -0.0801945 0.0928218 0 -0.0763096 0.100646 0 -0.078329 0.0965983 0 -0.0730497 0.108605 0 -0.0831458 0.088348 0 -0.0739389 0.106892 0 -0.0823233 0.0900872 0 -0.0754037 0.104048 0 -0.0809418 0.0929633 0 -0.0772336 0.100451 0 -0.0791683 0.0965822 0 -0.0720367 0.108997 0 -0.0825563 0.0879153 0 -0.072947 0.107206 0 -0.0816836 0.089714 0 -0.0744532 0.104235 0 -0.0802243 0.0926943 0 -0.0763465 0.100482 0 -0.0783627 0.0964533 0 -0.0729223 0.108514 0 -0.0830758 0.0882027 0 -0.0738151 0.106796 0 -0.0822473 0.0899454 0 -0.0752864 0.103943 0 -0.080856 0.0928279 0 -0.0771255 0.100335 0 -0.0790712 0.0964558 0 -0.0721274 0.108723 0 -0.0826109 0.0878005 0 -0.0730368 0.106946 0 -0.0817435 0.089587 0 -0.0745408 0.103999 0 -0.080292 0.0925464 0 -0.0764295 0.100276 0 -0.0784388 0.096278 0 -0.0727219 0.108416 0 -0.0829628 0.0880038 0 -0.0736198 0.106688 0 -0.0821247 0.0897532 0 -0.0751007 0.103819 0 -0.0807184 0.0926479 0 -0.0769536 0.100192 0 -0.0789161 0.0962926 0 -0.0722825 0.108496 0 -0.0827045 0.0877589 0 -0.0731897 0.106737 0 -0.0818452 0.0895315 0 -0.0746886 0.103818 0 -0.080406 0.0924669 0 -0.0765688 0.100129 0 -0.0785662 0.0961667 0 -0.0724924 0.108392 0 -0.0828295 0.087833 0 -0.0733956 0.106649 0 -0.0819805 0.0895927 0 -0.0748865 0.103758 0 -0.0805571 0.0925055 0 -0.0767541 0.100103 0 -0.0787352 0.0961749 0 -0.0545993 0.171088 0 -0.0633725 0.147541 0 -0.0553031 0.169114 0 -0.0625833 0.149576 0 -0.0564881 0.165829 0 -0.0612921 0.152937 0 -0.0580155 0.161659 0 -0.0596927 0.157159 0 -0.0521905 0.160617 0 -0.0614424 0.138641 0 -0.052936 0.158776 0 -0.0606143 0.140541 0 -0.0541899 0.155711 0 -0.0592573 0.143678 0 -0.055804 0.151819 0 -0.0575733 0.147619 0 -0.054373 0.170127 0 -0.0631817 0.146719 0 -0.05508 0.168166 0 -0.0623896 0.148742 0 -0.05627 0.1649 0 -0.0610934 0.152084 0 -0.0578038 0.160755 0 -0.0594877 0.15628 0 -0.0523702 0.16143 0 -0.061576 0.139325 0 -0.0531115 0.159578 0 -0.0607515 0.141235 0 -0.0543587 0.156494 0 -0.0594007 0.144391 0 -0.0559644 0.15258 0 -0.0577249 0.148355 0 -0.0540051 0.16856 0 -0.0628747 0.145378 0 -0.0547172 0.166617 0 -0.0620775 0.147382 0 -0.0559159 0.163383 0 -0.0607729 0.150691 0 -0.0574607 0.159278 0 -0.0591564 0.154848 0 -0.0526801 0.162813 0 -0.0618118 0.140492 0 -0.0534149 0.160943 0 -0.0609932 0.142421 0 -0.0546513 0.15783 0 -0.0596525 0.145608 0 -0.0562435 0.153877 0 -0.0579897 0.14961 0 -0.0535546 0.166629 0 -0.0625051 0.14373 0 -0.0542738 0.16471 0 -0.0617013 0.145709 0 -0.055484 0.161516 0 -0.0603854 0.148979 0 -0.0570434 0.157461 0 -0.0587546 0.153084 0 -0.0530912 0.164621 0 -0.0621332 0.142022 0 -0.0538183 0.162727 0 -0.0613219 0.143976 0 -0.0550417 0.159575 0 -0.0599935 0.147202 0 -0.0566176 0.155573 0 -0.0583465 0.151254 0 -0.0606796 0.197018 0 -0.0688583 0.169874 0 -0.0613323 0.194738 0 -0.0681184 0.172216 0 -0.0624324 0.190945 0 -0.0669098 0.176085 0 -0.0638528 0.186134 0 -0.0654158 0.180947 0 -0.0576695 0.184066 0 -0.0660741 0.158701 0 -0.0583414 0.181938 0 -0.0653156 0.160891 0 -0.0594736 0.178397 0 -0.0640755 0.16451 0 -0.0609347 0.173903 0 -0.0625413 0.169056 0 -0.0604199 0.195887 0 -0.068614 0.168898 0 -0.061074 0.19362 0 -0.0678729 0.171226 0 -0.0621763 0.189848 0 -0.0666621 0.175074 0 -0.0635995 0.185066 0 -0.0651654 0.179908 0 -0.0579217 0.185139 0 -0.0663031 0.159626 0 -0.0585917 0.182998 0 -0.0655465 0.161828 0 -0.0597205 0.179436 0 -0.0643096 0.165468 0 -0.0611775 0.174916 0 -0.0627796 0.17004 0 -0.0599906 0.194022 0 -0.0682116 0.167289 0 -0.060647 0.191777 0 -0.0674683 0.169595 0 -0.0617532 0.188042 0 -0.0662538 0.173407 0 -0.0631812 0.183305 0 -0.0647524 0.178196 0 -0.0583418 0.186929 0 -0.0666863 0.16117 0 -0.0590087 0.184768 0 -0.0659328 0.163394 0 -0.0601323 0.181171 0 -0.0647011 0.167068 0 -0.0615826 0.176607 0 -0.0631776 0.171684 0 -0.059451 0.191689 0 -0.0677088 0.165276 0 -0.0601105 0.189471 0 -0.0669624 0.167555 0 -0.0612219 0.185781 0 -0.0657428 0.171322 0 -0.0626566 0.181101 0 -0.0642348 0.176054 0 -0.0588752 0.189213 0 -0.0671762 0.163139 0 -0.0595384 0.187024 0 -0.0664263 0.16539 0 -0.0606559 0.183382 0 -0.0652006 0.169109 0 -0.0620984 0.178763 0 -0.0636849 0.17378 0 -0.0788557 0.139801 0 -0.0887038 0.111816 0 -0.0796807 0.137418 0 -0.0878588 0.114197 0 -0.0810566 0.133467 0 -0.0864581 0.118144 0 -0.0828055 0.128479 0 -0.0846924 0.12313 0 -0.076284 0.130552 0 -0.0862772 0.104361 0 -0.0771236 0.128322 0 -0.0854225 0.106588 0 -0.078523 0.124623 0 -0.0840044 0.110282 0 -0.0802999 0.119954 0 -0.0822148 0.114948 0 -0.0786256 0.138991 0 -0.0884824 0.111162 0 -0.0794516 0.136622 0 -0.0876369 0.113529 0 -0.080829 0.132693 0 -0.0862351 0.117455 0 -0.0825795 0.127732 0 -0.0844681 0.122413 0 -0.0764906 0.131316 0 -0.086468 0.104975 0 -0.0773286 0.129073 0 -0.0856144 0.107215 0 -0.0787254 0.125353 0 -0.0841981 0.11093 0 -0.0804993 0.120657 0 -0.0824112 0.115622 0 -0.0782483 0.137658 0 -0.0881211 0.110085 0 -0.0790759 0.13531 0 -0.0872745 0.11243 0 -0.0804559 0.131417 0 -0.0858709 0.11632 0 -0.0822096 0.126503 0 -0.0841012 0.121232 0 -0.0768386 0.132593 0 -0.0867912 0.106001 0 -0.0776742 0.130328 0 -0.0859392 0.108263 0 -0.079067 0.126573 0 -0.084526 0.112013 0 -0.0808361 0.121833 0 -0.0827432 0.11675 0 -0.0777797 0.135991 0 -0.0876754 0.108739 0 -0.0786097 0.13367 0 -0.0868274 0.111057 0 -0.0799934 0.129822 0 -0.085421 0.114901 0 -0.0817515 0.124965 0 -0.0836476 0.119756 0 -0.0772874 0.134222 0 -0.087211 0.107313 0 -0.0781201 0.13193 0 -0.086361 0.109602 0 -0.0795083 0.128131 0 -0.0849513 0.113397 0 -0.0812718 0.123334 0 -0.0831733 0.118191 0 -0.0947951 0.071009 0 -0.103044 0.0475197 0 -0.0955734 0.0689839 0 -0.102429 0.0494961 0 -0.0968369 0.0656376 0 -0.101369 0.0527816 0 -0.0983799 0.0614328 0 -0.0999644 0.0569453 0 -0.0935584 0.0671629 0 -0.101667 0.0450877 0 -0.09433 0.0652646 0 -0.101068 0.0469505 0 -0.0955796 0.0621262 0 -0.100034 0.0500447 0 -0.0971011 0.058179 0 -0.0986579 0.0539619 0 -0.0946662 0.0706333 0 -0.102909 0.0472757 0 -0.0954444 0.0686198 0 -0.102295 0.0492413 0 -0.0967076 0.0652926 0 -0.101237 0.0525087 0 -0.09825 0.0611116 0 -0.0998334 0.0566493 0 -0.0936396 0.0674343 0 -0.101769 0.0452519 0 -0.0944124 0.0655262 0 -0.101168 0.0471231 0 -0.0956643 0.0623716 0 -0.10013 0.0502315 0 -0.0971891 0.0584047 0 -0.09875 0.0541672 0 -0.094462 0.0700274 0 -0.102694 0.0468842 0 -0.09524 0.0680328 0 -0.102082 0.0488323 0 -0.0965024 0.0647368 0 -0.101026 0.0520703 0 -0.0980433 0.0605946 0 -0.0996246 0.0561733 0 -0.0937842 0.0679104 0 -0.101943 0.0455441 0 -0.0945587 0.0659854 0 -0.101339 0.0474297 0 -0.095814 0.0628035 0 -0.100296 0.0505626 0 -0.0973436 0.0588028 0 -0.0989102 0.0545301 0 -0.0942213 0.0692952 0 -0.102436 0.046415 0 -0.0949986 0.067324 0 -0.101826 0.0483417 0 -0.0962596 0.0640664 0 -0.100773 0.0515439 0 -0.0977979 0.0599719 0 -0.0993756 0.0556009 0 -0.0939846 0.0685547 0 -0.102174 0.045946 0 -0.0947608 0.0666078 0 -0.101566 0.0478509 0 -0.0960193 0.06339 0 -0.100518 0.0510163 0 -0.0975537 0.059345 0 -0.0991263 0.0550259 0 -0.099139 0.0818065 0 -0.107419 0.0547264 0 -0.0999133 0.0794719 0 -0.106796 0.0570044 0 -0.101173 0.075614 0 -0.105725 0.0607918 0 -0.102717 0.070766 0 -0.104309 0.0655921 0 -0.0967848 0.0763065 0 -0.105054 0.0510227 0 -0.0975608 0.0741256 0 -0.104434 0.0531487 0 -0.0988223 0.0705223 0 -0.103367 0.0566835 0 -0.100366 0.065995 0 -0.101955 0.0611644 0 -0.0989214 0.0813221 0 -0.107199 0.0543985 0 -0.0996958 0.0790008 0 -0.106577 0.0566633 0 -0.100956 0.0751651 0 -0.105506 0.0604286 0 -0.1025 0.070345 0 -0.104091 0.065201 0 -0.0969674 0.0767568 0 -0.105237 0.0513241 0 -0.0977431 0.0745631 0 -0.104617 0.0534626 0 -0.0990044 0.0709386 0 -0.10355 0.0570183 0 -0.100548 0.0663847 0 -0.102137 0.0615256 0 -0.0985675 0.0805249 0 -0.106843 0.0538596 0 -0.0993419 0.0782257 0 -0.106221 0.0561024 0 -0.100602 0.0744265 0 -0.105151 0.0598313 0 -0.102146 0.0696524 0 -0.103736 0.0645578 0 -0.0972776 0.0775114 0 -0.105548 0.05183 0 -0.098053 0.0752963 0 -0.104927 0.0539895 0 -0.0993139 0.0716365 0 -0.10386 0.05758 0 -0.100858 0.0670381 0 -0.102447 0.0621315 0 -0.098133 0.0795299 0 -0.106406 0.053188 0 -0.0989077 0.0772583 0 -0.105785 0.0554034 0 -0.100168 0.0735049 0 -0.104715 0.0590868 0 -0.101711 0.0687885 0 -0.103301 0.0637557 0 -0.0976826 0.0784776 0 -0.105954 0.0524792 0 -0.0984576 0.0762354 0 -0.105333 0.0546655 0 -0.0997181 0.0725306 0 -0.104265 0.0583006 0 -0.101262 0.0678756 0 -0.102851 0.0629084 0 -0.11349 0.0262416 0 -0.115407 0.000528125 0 -0.113802 0.0240332 0 -0.115398 0.00270521 0 -0.11426 0.0203826 0 -0.115317 0.00631673 0 -0.114732 0.0157908 0 -0.115101 0.010882 0 -0.11108 0.0244532 0 -0.112975 0.000491814 0 -0.111388 0.0223942 0 -0.112964 0.00251937 0 -0.11184 0.018991 0 -0.112883 0.00588341 0 -0.112305 0.0147112 0 -0.11267 0.0101368 0 -0.113266 0.0260826 0 -0.115181 0.000524885 0 -0.113578 0.0238874 0 -0.115172 0.00268863 0 -0.114036 0.0202588 0 -0.115091 0.0062781 0 -0.114507 0.0156947 0 -0.114876 0.0108156 0 -0.111267 0.0245979 0 -0.113164 0.000494741 0 -0.111575 0.0225268 0 -0.113153 0.00253436 0 -0.112028 0.0191035 0 -0.113072 0.00591836 0 -0.112493 0.0147984 0 -0.112858 0.0101969 0 -0.112903 0.0258215 0 -0.114815 0.000519568 0 -0.113214 0.023648 0 -0.114805 0.00266143 0 -0.113671 0.0200554 0 -0.114725 0.00621469 0 -0.114141 0.0155369 0 -0.11451 0.0107066 0 -0.111584 0.0248412 0 -0.113484 0.000499667 0 -0.111893 0.0227497 0 -0.113474 0.00255957 0 -0.112347 0.0192927 0 -0.113393 0.00597718 0 -0.112813 0.0149451 0 -0.113179 0.0102981 0 -0.112458 0.0254965 0 -0.114366 0.00051296 0 -0.112769 0.0233502 0 -0.114356 0.00262761 0 -0.113225 0.0198025 0 -0.114276 0.00613585 0 -0.113693 0.0153406 0 -0.114061 0.0105711 0 -0.111998 0.0251541 0 -0.113901 0.00050601 0 -0.112308 0.0230364 0 -0.113891 0.00259204 0 -0.112762 0.0195361 0 -0.113811 0.00605291 0 -0.11323 0.0151339 0 -0.113597 0.0104284 0 -0.00492118 0.270103 0 -0.00922634 0.265441 0 -0.00529664 0.269832 0 -0.00886123 0.265971 0 -0.00591261 0.269334 0 -0.00825826 0.266793 0 -0.00668117 0.268616 0 -0.00749855 0.26773 0 -0.00774884 0.26855 0 -0.0152008 0.265579 0 -0.00837853 0.268375 0 -0.0145609 0.265912 0 -0.00942413 0.268054 0 -0.0135025 0.266431 0 -0.0107472 0.267593 0 -0.0121708 0.267026 0 -0.00507017 0.270055 0 -0.0095072 0.265502 0 -0.0054574 0.269791 0 -0.00913133 0.26602 0 -0.00609262 0.269305 0 -0.00851037 0.266823 0 -0.00688508 0.268604 0 -0.00772761 0.267738 0 -0.00736934 0.268819 0 -0.0143456 0.265658 0 -0.00796241 0.268635 0 -0.0137485 0.266015 0 -0.00894513 0.268295 0 -0.0127608 0.266569 0 -0.0101855 0.267806 0 -0.011517 0.267204 0 -0.00533698 0.26996 0 -0.0100214 0.265598 0 -0.00574583 0.269708 0 -0.00962505 0.266095 0 -0.00641669 0.269243 0 -0.0089699 0.266865 0 -0.00725373 0.268572 0 -0.00814355 0.267743 0 -0.00681525 0.269188 0 -0.013116 0.265736 0 -0.00735574 0.268988 0 -0.0125793 0.266128 0 -0.00824847 0.26862 0 -0.0116913 0.266737 0 -0.00937099 0.268088 0 -0.010572 0.267431 0 -0.00572553 0.269796 0 -0.0107983 0.265697 0 -0.00616726 0.26956 0 -0.0103691 0.266165 0 -0.00689283 0.269125 0 -0.00965922 0.26689 0 -0.00779921 0.268494 0 -0.00876352 0.267716 0 -0.00623245 0.269537 0 -0.0118555 0.265754 0 -0.00671913 0.269319 0 -0.0113786 0.266186 0 -0.00752042 0.268917 0 -0.0105896 0.266854 0 -0.00852409 0.268335 0 -0.00959432 0.267616 0 -0.00218364 0.27199 0 -0.00452091 0.265415 0 -0.00236552 0.271593 0 -0.00429934 0.266137 0 -0.00267199 0.270868 0 -0.00394339 0.267267 0 -0.00306958 0.269834 0 -0.00351235 0.268576 0 -0.00335671 0.270705 0 -0.00645872 0.264909 0 -0.00361816 0.270361 0 -0.00618646 0.265556 0 -0.0040506 0.269731 0 -0.00574058 0.266564 0 -0.00459662 0.268828 0 -0.0051855 0.267723 0 -0.00226475 0.271822 0 -0.00465019 0.265298 0 -0.00245195 0.271429 0 -0.00442578 0.266015 0 -0.00276676 0.27071 0 -0.0040646 0.267137 0 -0.00317401 0.269684 0 -0.00362601 0.268437 0 -0.00324538 0.270771 0 -0.00627087 0.264897 0 -0.00349914 0.270421 0 -0.00600405 0.265552 0 -0.00391935 0.269781 0 -0.00556758 0.266572 0 -0.00445082 0.268865 0 -0.00502514 0.267746 0 -0.00240972 0.271573 0 -0.00488406 0.26514 0 -0.00260653 0.271186 0 -0.00465421 0.265849 0 -0.00293649 0.270479 0 -0.00428311 0.266958 0 -0.00336137 0.269469 0 -0.00383041 0.268239 0 -0.00306272 0.270891 0 -0.00596391 0.264892 0 -0.0033039 0.270533 0 -0.00570577 0.265559 0 -0.00370411 0.269879 0 -0.00528445 0.2666 0 -0.00421184 0.268942 0 -0.00476248 0.267798 0 -0.00260877 0.271307 0 -0.00520952 0.265003 0 -0.00281898 0.270928 0 -0.0049716 0.265699 0 -0.00317007 0.270237 0 -0.00458598 0.266788 0 -0.00361974 0.269248 0 -0.00411299 0.268045 0 -0.00283815 0.271071 0 -0.00558897 0.26492 0 -0.00306394 0.270703 0 -0.00534111 0.265602 0 -0.00343973 0.27003 0 -0.00493783 0.266666 0 -0.00391852 0.269068 0 -0.00444047 0.267894 0 -0.00788717 0.25384 0 -0.0121227 0.239948 0 -0.00820261 0.252758 0 -0.0117154 0.241219 0 -0.00874353 0.250919 0 -0.0110599 0.243295 0 -0.00945881 0.248519 0 -0.0102671 0.245855 0 -0.0102171 0.254196 0 -0.0143533 0.240718 0 -0.0105419 0.253167 0 -0.0139721 0.241971 0 -0.0110909 0.251408 0 -0.0133527 0.244009 0 -0.0118034 0.249096 0 -0.0125926 0.24651 0 -0.00803037 0.253767 0 -0.0122428 0.239878 0 -0.00834514 0.252688 0 -0.0118387 0.24115 0 -0.00888438 0.25085 0 -0.011188 0.243227 0 -0.00959658 0.248452 0 -0.0104004 0.245788 0 -0.00997851 0.254086 0 -0.0141068 0.240542 0 -0.010301 0.25305 0 -0.0137246 0.241799 0 -0.0108468 0.25128 0 -0.0131042 0.243845 0 -0.0115565 0.248955 0 -0.0123441 0.246357 0 -0.00829609 0.253698 0 -0.0124756 0.239827 0 -0.00861033 0.252622 0 -0.0120765 0.2411 0 -0.00914773 0.250791 0 -0.0114332 0.243178 0 -0.0098559 0.248398 0 -0.0106534 0.245738 0 -0.0095937 0.253928 0 -0.0137163 0.240285 0 -0.00991298 0.252882 0 -0.0133318 0.241548 0 -0.0104546 0.251095 0 -0.0127088 0.243606 0 -0.0111609 0.24875 0 -0.0119475 0.246134 0 -0.00867665 0.253693 0 -0.0128247 0.239869 0 -0.00899129 0.252625 0 -0.0124313 0.241142 0 -0.00952804 0.250805 0 -0.0117962 0.243217 0 -0.0102331 0.248423 0 -0.0110245 0.245772 0 -0.00913252 0.253778 0 -0.0132604 0.240034 0 -0.00944891 0.25272 0 -0.0128721 0.241303 0 -0.00998713 0.250915 0 -0.0122441 0.243371 0 -0.0106915 0.248551 0 -0.011479 0.245915 0 -0.00152275 0.280393 0 -0.00371925 0.273578 0 -0.00167152 0.279976 0 -0.00348766 0.274312 0 -0.00193145 0.279214 0 -0.00312447 0.27547 0 -0.00228542 0.27813 0 -0.00270065 0.276821 0 -0.00157358 0.275362 0 -0.00364185 0.268472 0 -0.00171923 0.274943 0 -0.00342929 0.269219 0 -0.00197089 0.274176 0 -0.0030942 0.270394 0 -0.00230886 0.273084 0 -0.00269981 0.271762 0 -0.00151422 0.2799 0 -0.00369115 0.27307 0 -0.00166184 0.279482 0 -0.00346176 0.273806 0 -0.00191965 0.278719 0 -0.00310199 0.274967 0 -0.00227058 0.277633 0 -0.00268209 0.276321 0 -0.00155377 0.275723 0 -0.00362231 0.268828 0 -0.0016986 0.275303 0 -0.00340886 0.269575 0 -0.00194926 0.274535 0 -0.00307266 0.27075 0 -0.00228654 0.273442 0 -0.00267752 0.272119 0 -0.00150436 0.279108 0 -0.00365164 0.272256 0 -0.00165036 0.278689 0 -0.00342572 0.272995 0 -0.00190513 0.277924 0 -0.00307129 0.27416 0 -0.00225157 0.276835 0 -0.00265744 0.275519 0 -0.0015283 0.27635 0 -0.00360243 0.269453 0 -0.0016723 0.275929 0 -0.00338714 0.270199 0 -0.0019221 0.275161 0 -0.00304848 0.271374 0 -0.00225922 0.274067 0 -0.00265124 0.272743 0 -0.00150045 0.278155 0 -0.00361599 0.271281 0 -0.00164499 0.277735 0 -0.00339406 0.272023 0 -0.00189685 0.276968 0 -0.00304572 0.273192 0 -0.00223873 0.275876 0 -0.00263857 0.274556 0 -0.0015083 0.277191 0 -0.00359791 0.270301 0 -0.00165211 0.276771 0 -0.00337973 0.271046 0 -0.00190217 0.276002 0 -0.00303693 0.272218 0 -0.00224073 0.274908 0 -0.00263566 0.273586 0 -0.00210817 0.295497 0 -0.00501461 0.289276 0 -0.00231026 0.295113 0 -0.00471503 0.28994 0 -0.00266134 0.294413 0 -0.00424238 0.290991 0 -0.00313544 0.293419 0 -0.00368604 0.292222 0 -0.00175865 0.287568 0 -0.00428356 0.281021 0 -0.00193063 0.287166 0 -0.00401902 0.281723 0 -0.0022309 0.286432 0 -0.00360335 0.282832 0 -0.00263918 0.285388 0 -0.003117 0.284129 0 -0.00207546 0.294779 0 -0.00494766 0.288528 0 -0.00227478 0.294393 0 -0.00465113 0.289196 0 -0.00262121 0.29369 0 -0.0041835 0.290252 0 -0.00308933 0.292691 0 -0.00363339 0.291489 0 -0.00178482 0.288199 0 -0.00434014 0.281677 0 -0.00195913 0.287798 0 -0.00407272 0.282376 0 -0.00226335 0.287067 0 -0.00365241 0.28348 0 -0.00267681 0.286026 0 -0.00316042 0.284772 0 -0.00202221 0.293605 0 -0.00483824 0.287307 0 -0.00221702 0.293217 0 -0.00454676 0.28798 0 -0.00255585 0.292509 0 -0.00408739 0.289045 0 -0.00301419 0.291503 0 -0.00354751 0.290291 0 -0.00182992 0.289263 0 -0.00443663 0.282785 0 -0.0020082 0.288865 0 -0.00416438 0.283479 0 -0.00231915 0.288138 0 -0.00373627 0.284575 0 -0.00274138 0.287104 0 -0.00323478 0.285858 0 -0.00195693 0.292155 0 -0.00470325 0.285797 0 -0.00214618 0.291764 0 -0.0044181 0.286477 0 -0.00247565 0.291049 0 -0.00396906 0.287552 0 -0.0029219 0.290034 0 -0.00344191 0.288811 0 -0.00188968 0.290639 0 -0.00456287 0.284218 0 -0.00207315 0.290244 0 -0.00428444 0.284905 0 -0.00239288 0.289523 0 -0.00384632 0.285991 0 -0.00282652 0.288498 0 -0.00333259 0.287263 0 -0.00983814 0.279186 0 -0.0160179 0.268179 0 -0.0103007 0.278292 0 -0.0154297 0.269147 0 -0.0110943 0.276787 0 -0.0144795 0.270744 0 -0.012143 0.274853 0 -0.013325 0.272741 0 -0.00862706 0.270286 0 -0.014339 0.258398 0 -0.00905011 0.269327 0 -0.0137906 0.259451 0 -0.0097779 0.267711 0 -0.0129065 0.261185 0 -0.0107432 0.265628 0 -0.0118355 0.263347 0 -0.00973053 0.278381 0 -0.015871 0.267297 0 -0.0101898 0.277481 0 -0.0152862 0.268273 0 -0.0109779 0.275967 0 -0.0143415 0.269881 0 -0.0120195 0.274019 0 -0.013194 0.271893 0 -0.0087243 0.270994 0 -0.014477 0.25918 0 -0.00915077 0.270041 0 -0.0139251 0.260226 0 -0.00988425 0.268434 0 -0.0130353 0.261948 0 -0.0108567 0.266363 0 -0.011957 0.264097 0 -0.00955346 0.277066 0 -0.0156288 0.265855 0 -0.0100072 0.276156 0 -0.0150494 0.266843 0 -0.0107861 0.274625 0 -0.014114 0.268471 0 -0.011816 0.272657 0 -0.012978 0.270506 0 -0.00888844 0.27219 0 -0.0147082 0.260498 0 -0.00932055 0.271245 0 -0.0141506 0.261532 0 -0.0100634 0.269654 0 -0.0132512 0.263235 0 -0.0110479 0.267603 0 -0.0121609 0.26536 0 -0.00933278 0.275438 0 -0.0153256 0.26407 0 -0.00977953 0.274517 0 -0.0147532 0.265073 0 -0.0105467 0.272966 0 -0.0138294 0.266725 0 -0.011562 0.270971 0 -0.0127081 0.26879 0 -0.00910037 0.273736 0 -0.015004 0.262199 0 -0.00953956 0.272802 0 -0.0144393 0.263218 0 -0.0102942 0.27123 0 -0.013528 0.264897 0 -0.0112936 0.269206 0 -0.0124227 0.266993 0 -0.0200126 0.234603 0 -0.0279331 0.220985 0 -0.020648 0.233427 0 -0.0272235 0.222123 0 -0.0217188 0.231482 0 -0.0260602 0.22402 0 -0.0231 0.229038 0 -0.0246163 0.226432 0 -0.0184583 0.22727 0 -0.0258434 0.212264 0 -0.0190459 0.225986 0 -0.0251765 0.213529 0 -0.020038 0.223857 0 -0.0240854 0.215634 0 -0.0213215 0.221173 0 -0.0227349 0.218301 0 -0.0198562 0.233887 0 -0.027735 0.220152 0 -0.0204878 0.232702 0 -0.0270287 0.221301 0 -0.0215524 0.230742 0 -0.0258709 0.223215 0 -0.0229261 0.228277 0 -0.0244343 0.225649 0 -0.0185599 0.227793 0 -0.0259949 0.212906 0 -0.0191519 0.226518 0 -0.025324 0.21416 0 -0.0201513 0.224405 0 -0.0242261 0.216247 0 -0.0214438 0.221742 0 -0.0228669 0.218893 0 -0.0196043 0.232735 0 -0.0274124 0.218805 0 -0.0202295 0.231534 0 -0.0267118 0.219971 0 -0.0212837 0.229548 0 -0.0255635 0.221915 0 -0.0226444 0.227049 0 -0.0241391 0.224384 0 -0.0187436 0.228706 0 -0.0262593 0.214017 0 -0.0193427 0.227446 0 -0.0255819 0.215252 0 -0.0203539 0.225359 0 -0.0244731 0.217309 0 -0.0216611 0.22273 0 -0.0230997 0.219918 0 -0.0193017 0.231343 0 -0.0270181 0.217168 0 -0.0199187 0.230123 0 -0.0263247 0.218356 0 -0.0209594 0.228104 0 -0.0251888 0.220336 0 -0.0223033 0.225563 0 -0.0237804 0.22285 0 -0.019 0.229935 0 -0.0266144 0.215494 0 -0.0196079 0.228694 0 -0.0259291 0.216707 0 -0.0206335 0.22664 0 -0.0248069 0.218727 0 -0.0219588 0.224053 0 -0.0234163 0.22129 0 -0.0243581 0.255833 0 -0.0331626 0.244898 0 -0.0250736 0.254875 0 -0.0323827 0.245799 0 -0.0262753 0.253297 0 -0.0311007 0.247306 0 -0.0278182 0.251323 0 -0.0295034 0.249231 0 -0.0221911 0.244849 0 -0.0305965 0.232668 0 -0.0228704 0.243789 0 -0.0298484 0.233678 0 -0.024013 0.242039 0 -0.0286201 0.235365 0 -0.025483 0.239846 0 -0.027092 0.237515 0 -0.0241713 0.25485 0 -0.0329429 0.243811 0 -0.0248839 0.253884 0 -0.0321657 0.244721 0 -0.0260807 0.252291 0 -0.0308882 0.246243 0 -0.0276176 0.250299 0 -0.0292966 0.248187 0 -0.0223724 0.245734 0 -0.0308132 0.233662 0 -0.023055 0.244683 0 -0.0300623 0.234662 0 -0.0242028 0.242948 0 -0.0288293 0.236334 0 -0.0256793 0.240774 0 -0.0272951 0.238464 0 -0.0238622 0.253239 0 -0.0325791 0.242027 0 -0.0245698 0.252259 0 -0.0318062 0.242952 0 -0.0257586 0.250642 0 -0.0305361 0.244499 0 -0.0272855 0.248619 0 -0.028954 0.246474 0 -0.0226747 0.247223 0 -0.0311734 0.23533 0 -0.0233625 0.246186 0 -0.030418 0.236315 0 -0.0245189 0.244476 0 -0.0291771 0.23796 0 -0.026006 0.242334 0 -0.0276329 0.240058 0 -0.0234735 0.25124 0 -0.0321204 0.239809 0 -0.0241748 0.250241 0 -0.0313531 0.240753 0 -0.0253532 0.248595 0 -0.0300924 0.242331 0 -0.0268674 0.246533 0 -0.0285225 0.244346 0 -0.0230588 0.24914 0 -0.0316296 0.237471 0 -0.0237531 0.248121 0 -0.0308684 0.238435 0 -0.0249203 0.246442 0 -0.0296179 0.240048 0 -0.0264206 0.244339 0 -0.0280612 0.242106 0 -0.043377 0.234053 0 -0.0530489 0.22502 0 -0.0441969 0.233247 0 -0.0522236 0.225755 0 -0.0455582 0.231928 0 -0.0508555 0.226986 0 -0.0472798 0.230289 0 -0.0491294 0.228565 0 -0.0404387 0.220427 0 -0.0498084 0.21017 0 -0.0412315 0.219514 0 -0.0490079 0.211006 0 -0.0425487 0.218017 0 -0.0476811 0.212406 0 -0.0442156 0.216158 0 -0.0460077 0.2142 0 -0.0431262 0.232852 0 -0.0527722 0.223721 0 -0.0439438 0.232038 0 -0.0519491 0.224464 0 -0.0453014 0.230704 0 -0.0505846 0.225709 0 -0.0470183 0.229048 0 -0.048863 0.227305 0 -0.040688 0.221545 0 -0.0500836 0.211399 0 -0.0414831 0.220642 0 -0.049281 0.212226 0 -0.0428042 0.219161 0 -0.0479506 0.213611 0 -0.0444758 0.217322 0 -0.0462727 0.215385 0 -0.0427105 0.230878 0 -0.0523139 0.221581 0 -0.0435243 0.230049 0 -0.0514943 0.222338 0 -0.0448758 0.228692 0 -0.0501357 0.223606 0 -0.046585 0.227006 0 -0.0484215 0.225231 0 -0.0411017 0.223417 0 -0.05054 0.213451 0 -0.0419007 0.222529 0 -0.0497339 0.214263 0 -0.043228 0.221075 0 -0.0483978 0.215623 0 -0.0449074 0.219268 0 -0.0467125 0.217366 0 -0.0421863 0.228415 0 -0.051736 0.218906 0 -0.0429953 0.227568 0 -0.0509208 0.21968 0 -0.0443389 0.226179 0 -0.0495695 0.220977 0 -0.0460385 0.224455 0 -0.0478648 0.222639 0 -0.0416246 0.225811 0 -0.0511167 0.216068 0 -0.0424285 0.224943 0 -0.0503063 0.216861 0 -0.0437637 0.22352 0 -0.0489629 0.21819 0 -0.0454528 0.221754 0 -0.0472682 0.219894 0 -0.0703397 0.24082 0 -0.078141 0.207414 0 -0.0709506 0.237996 0 -0.0774234 0.210281 0 -0.0719853 0.233307 0 -0.0762558 0.215022 0 -0.0733302 0.227373 0 -0.0748209 0.220991 0 -0.0640679 0.212064 0 -0.0720976 0.182835 0 -0.0647063 0.209604 0 -0.0713693 0.185352 0 -0.0657834 0.205514 0 -0.0701801 0.189514 0 -0.0671763 0.20033 0 -0.0687112 0.194745 0 -0.0697945 0.238305 0 -0.0776194 0.20528 0 -0.0704084 0.235514 0 -0.0769009 0.208114 0 -0.0714477 0.230879 0 -0.0757312 0.212804 0 -0.0727977 0.225015 0 -0.074293 0.218705 0 -0.0645944 0.214444 0 -0.0726056 0.184881 0 -0.0652307 0.211955 0 -0.0718785 0.187427 0 -0.0663047 0.207817 0 -0.0706914 0.191635 0 -0.067694 0.202574 0 -0.0692255 0.196925 0 -0.0688967 0.234162 0 -0.0767578 0.201756 0 -0.0695152 0.231425 0 -0.0760378 0.204539 0 -0.0705614 0.22688 0 -0.074865 0.209143 0 -0.0719192 0.221127 0 -0.0734216 0.214935 0 -0.0654689 0.218418 0 -0.0734503 0.188294 0 -0.0661018 0.215881 0 -0.0727249 0.190887 0 -0.0671706 0.211663 0 -0.0715409 0.195173 0 -0.0685539 0.206319 0 -0.0700797 0.200563 0 -0.0677728 0.228981 0 -0.0756755 0.197338 0 -0.0683964 0.226311 0 -0.0749539 0.200058 0 -0.0694507 0.221875 0 -0.0737774 0.204555 0 -0.0708174 0.216259 0 -0.0723279 0.210213 0 -0.0665769 0.223485 0 -0.074521 0.192638 0 -0.0672056 0.220884 0 -0.0737976 0.195291 0 -0.0682675 0.216563 0 -0.0726173 0.199678 0 -0.0696431 0.21109 0 -0.0711617 0.205195 0 -0.0636919 0.274955 0 -0.0700468 0.242189 0 -0.0641789 0.27219 0 -0.0694509 0.245006 0 -0.0650082 0.267598 0 -0.0684859 0.249665 0 -0.0660942 0.261784 0 -0.0673081 0.255524 0 -0.056974 0.2416 0 -0.0637613 0.213256 0 -0.0575062 0.239223 0 -0.0631362 0.215706 0 -0.0584066 0.235267 0 -0.0621199 0.219753 0 -0.0595761 0.230249 0 -0.060872 0.224834 0 -0.0630968 0.272016 0 -0.0695001 0.239657 0 -0.063589 0.269288 0 -0.0689011 0.242441 0 -0.0644264 0.264754 0 -0.0679304 0.247043 0 -0.0655218 0.259013 0 -0.0667449 0.252831 0 -0.0575313 0.244344 0 -0.0642888 0.21565 0 -0.0580606 0.241936 0 -0.0636658 0.21813 0 -0.0589564 0.23793 0 -0.0626533 0.222225 0 -0.0601202 0.232849 0 -0.0614104 0.227367 0 -0.0621229 0.267186 0 -0.0686001 0.235488 0 -0.062623 0.264516 0 -0.0679961 0.238217 0 -0.0634728 0.260077 0 -0.0670169 0.242728 0 -0.0645826 0.254455 0 -0.0658196 0.2484 0 -0.0584579 0.24893 0 -0.0651649 0.219648 0 -0.0589822 0.246471 0 -0.0645455 0.222177 0 -0.05987 0.242381 0 -0.0635392 0.226354 0 -0.0610242 0.237194 0 -0.0623047 0.231599 0 -0.0609133 0.261162 0 -0.0674736 0.230275 0 -0.0614223 0.258562 0 -0.0668641 0.232937 0 -0.0622859 0.254241 0 -0.0658752 0.237336 0 -0.0634119 0.248765 0 -0.0646646 0.242864 0 -0.0596355 0.25479 0 -0.0662752 0.224745 0 -0.0601529 0.252264 0 -0.0656604 0.227337 0 -0.0610297 0.248064 0 -0.0646621 0.23162 0 -0.062171 0.24274 0 -0.0634387 0.237 0 -0.077363 0.272503 0 -0.0846873 0.233944 0 -0.0779171 0.269226 0 -0.0839936 0.237235 0 -0.078864 0.263792 0 -0.0828726 0.242687 0 -0.0801098 0.256929 0 -0.081509 0.249562 0 -0.0706052 0.242045 0 -0.0783946 0.208453 0 -0.0712147 0.239204 0 -0.0776775 0.211334 0 -0.0722471 0.234488 0 -0.0765109 0.216102 0 -0.0735894 0.228521 0 -0.0750778 0.222104 0 -0.0767527 0.269843 0 -0.0841342 0.231745 0 -0.0773132 0.266606 0 -0.0834372 0.234999 0 -0.0782702 0.261239 0 -0.0823102 0.240387 0 -0.0795276 0.254459 0 -0.0809378 0.247181 0 -0.0711546 0.244576 0 -0.0789181 0.210596 0 -0.0717608 0.241702 0 -0.0782021 0.21351 0 -0.0727882 0.23693 0 -0.0770377 0.218331 0 -0.074125 0.230893 0 -0.0756084 0.224401 0 -0.0757586 0.265462 0 -0.0832262 0.228112 0 -0.0763291 0.262291 0 -0.0825246 0.231304 0 -0.0773015 0.257032 0 -0.0813886 0.23659 0 -0.0785764 0.250387 0 -0.080003 0.243252 0 -0.0720725 0.248796 0 -0.0797889 0.214159 0 -0.0726729 0.245864 0 -0.079075 0.217128 0 -0.0736913 0.240997 0 -0.0779149 0.22204 0 -0.075018 0.234842 0 -0.0764923 0.228225 0 -0.0745323 0.259983 0 -0.0820945 0.223547 0 -0.0751139 0.256892 0 -0.0813879 0.226664 0 -0.0761035 0.251765 0 -0.0802424 0.231824 0 -0.0773979 0.245286 0 -0.0788426 0.238325 0 -0.0732473 0.254166 0 -0.0808956 0.218677 0 -0.0738393 0.251159 0 -0.0801847 0.221716 0 -0.0748448 0.246169 0 -0.079031 0.226745 0 -0.0761571 0.239861 0 -0.0776184 0.23308 0 -0.0716496 0.3124 0 -0.0770988 0.274094 0 -0.0720433 0.309149 0 -0.0765641 0.277368 0 -0.0727245 0.303756 0 -0.0757069 0.282791 0 -0.0736357 0.296942 0 -0.0746768 0.289624 0 -0.0639829 0.276388 0 -0.0703131 0.243422 0 -0.0644673 0.273606 0 -0.0697188 0.246256 0 -0.0652925 0.268984 0 -0.0687567 0.250942 0 -0.0663737 0.263134 0 -0.0675828 0.256836 0 -0.0709364 0.309223 0 -0.0764852 0.271413 0 -0.0713401 0.306015 0 -0.0759436 0.274647 0 -0.0720373 0.300694 0 -0.0750743 0.28 0 -0.0729676 0.29397 0 -0.0740276 0.286747 0 -0.0645872 0.279352 0 -0.0708641 0.24597 0 -0.065066 0.276534 0 -0.0702733 0.248838 0 -0.0658823 0.271852 0 -0.0693174 0.253582 0 -0.0669531 0.265927 0 -0.0681521 0.259549 0 -0.0697835 0.304004 0 -0.0754861 0.267 0 -0.0702027 0.300868 0 -0.0749339 0.270167 0 -0.0709248 0.295663 0 -0.074046 0.27541 0 -0.0718845 0.289084 0 -0.072974 0.282014 0 -0.0656044 0.284305 0 -0.071785 0.250218 0 -0.066073 0.281425 0 -0.0712006 0.253145 0 -0.0668733 0.276641 0 -0.0702559 0.257985 0 -0.0679254 0.270589 0 -0.0691061 0.264077 0 -0.0683763 0.297502 0 -0.0742542 0.261481 0 -0.0688134 0.294452 0 -0.07369 0.264567 0 -0.069564 0.289389 0 -0.0727811 0.269674 0 -0.0705574 0.282988 0 -0.0716804 0.276106 0 -0.0669198 0.290627 0 -0.072964 0.255625 0 -0.0673741 0.287666 0 -0.0723886 0.258626 0 -0.0681519 0.282751 0 -0.0714599 0.263593 0 -0.0691775 0.276533 0 -0.0703322 0.269846 0 -0.0945034 0.192097 0 -0.10474 0.153667 0 -0.0953414 0.18881 0 -0.103841 0.156924 0 -0.0967466 0.183367 0 -0.102359 0.16233 0 -0.0985467 0.176508 0 -0.100507 0.169164 0 -0.0882561 0.171612 0 -0.0981853 0.137497 0 -0.0890802 0.168704 0 -0.0973244 0.140397 0 -0.0904572 0.163883 0 -0.0959012 0.145207 0 -0.0922129 0.157802 0 -0.0941144 0.151282 0 -0.0939648 0.190359 0 -0.104175 0.152318 0 -0.0948019 0.187107 0 -0.103279 0.155544 0 -0.0962051 0.18172 0 -0.101803 0.160897 0 -0.0980017 0.174932 0 -0.0999569 0.167663 0 -0.0887827 0.173358 0 -0.0987342 0.138894 0 -0.0896079 0.170419 0 -0.0978705 0.141823 0 -0.0909872 0.165549 0 -0.0964433 0.146682 0 -0.0927462 0.159405 0 -0.094652 0.152818 0 -0.0930751 0.187474 0 -0.10324 0.150068 0 -0.0939106 0.184277 0 -0.10235 0.153242 0 -0.0953101 0.178983 0 -0.100883 0.158507 0 -0.0971004 0.172309 0 -0.0990469 0.165162 0 -0.0896572 0.176254 0 -0.0996487 0.141204 0 -0.0904846 0.173264 0 -0.0987802 0.144182 0 -0.0918679 0.168309 0 -0.0973457 0.149122 0 -0.0936329 0.16206 0 -0.0955462 0.155362 0 -0.0919575 0.183826 0 -0.102065 0.147204 0 -0.0927905 0.180698 0 -0.101182 0.150313 0 -0.0941849 0.175518 0 -0.0997261 0.155471 0 -0.095967 0.168985 0 -0.0979023 0.161987 0 -0.0907646 0.179908 0 -0.10081 0.144108 0 -0.0915947 0.176853 0 -0.0999355 0.147149 0 -0.0929834 0.171791 0 -0.0984909 0.152193 0 -0.0947565 0.165406 0 -0.0966801 0.158565 0 -0.0850287 0.232346 0 -0.0940995 0.193694 0 -0.0857415 0.229053 0 -0.0932736 0.196983 0 -0.0869499 0.223595 0 -0.0919242 0.202437 0 -0.0885206 0.216707 0 -0.0902582 0.209321 0 -0.0787462 0.207053 0 -0.0878582 0.173024 0 -0.0794777 0.204166 0 -0.0870428 0.175932 0 -0.0807105 0.199376 0 -0.0857055 0.180748 0 -0.0823003 0.193322 0 -0.0840449 0.186819 0 -0.084477 0.230165 0 -0.0935612 0.191939 0 -0.0851926 0.22691 0 -0.0927358 0.195193 0 -0.0864049 0.221514 0 -0.0913864 0.200589 0 -0.0879792 0.214703 0 -0.0897193 0.207399 0 -0.0792692 0.20918 0 -0.0883842 0.174785 0 -0.08 0.206261 0 -0.0875677 0.177723 0 -0.081232 0.201419 0 -0.0862289 0.18259 0 -0.0828217 0.195299 0 -0.084567 0.188726 0 -0.0835712 0.226562 0 -0.0926722 0.189026 0 -0.0842907 0.223368 0 -0.0918477 0.192224 0 -0.0855085 0.218072 0 -0.0904991 0.197524 0 -0.0870879 0.211386 0 -0.0888312 0.204213 0 -0.0801393 0.212717 0 -0.0892578 0.177705 0 -0.0808686 0.209745 0 -0.0884395 0.180694 0 -0.082099 0.204813 0 -0.0870982 0.185647 0 -0.083688 0.198583 0 -0.0854342 0.191892 0 -0.0824416 0.222034 0 -0.0915556 0.185344 0 -0.0831652 0.218914 0 -0.0907328 0.188472 0 -0.0843885 0.21374 0 -0.0893859 0.193656 0 -0.0859726 0.207207 0 -0.0877182 0.200196 0 -0.0812445 0.217201 0 -0.0903639 0.181391 0 -0.0819715 0.214159 0 -0.0895434 0.184447 0 -0.0831991 0.209112 0 -0.0881992 0.189509 0 -0.0847864 0.202738 0 -0.0865329 0.195895 0 -0.0816774 0.35221 0 -0.0917779 0.262205 0 -0.0821745 0.344531 0 -0.0905495 0.269843 0 -0.0831455 0.331803 0 -0.0886666 0.28252 0 -0.0846345 0.315746 0 -0.0865607 0.298541 0 -0.0720938 0.313156 0 -0.0847882 0.235816 0 -0.0728908 0.306608 0 -0.0834236 0.242435 0 -0.0743287 0.295736 0 -0.0812779 0.253395 0 -0.0763509 0.281986 0 -0.0787768 0.267205 0 -0.0807683 0.348747 0 -0.091139 0.259918 0 -0.0812952 0.341171 0 -0.0898951 0.267461 0 -0.0823131 0.328613 0 -0.087983 0.279976 0 -0.0838564 0.31277 0 -0.0858347 0.29579 0 -0.0728252 0.316355 0 -0.0853486 0.238031 0 -0.0736012 0.309718 0 -0.0839919 0.244729 0 -0.0750068 0.2987 0 -0.081862 0.255821 0 -0.0769929 0.284771 0 -0.0793859 0.269802 0 -0.0793028 0.343067 0 -0.0901014 0.256146 0 -0.0798774 0.335659 0 -0.0888333 0.263534 0 -0.0809701 0.323379 0 -0.0868758 0.275788 0 -0.0826 0.307882 0 -0.0846608 0.291268 0 -0.0740691 0.321706 0 -0.0862885 0.241713 0 -0.0748083 0.314918 0 -0.0849462 0.248544 0 -0.0761572 0.303654 0 -0.0828453 0.25986 0 -0.0780796 0.289419 0 -0.0804141 0.274131 0 -0.0775236 0.336002 0 -0.0888265 0.251418 0 -0.0781555 0.328802 0 -0.0875309 0.258616 0 -0.0793377 0.316863 0 -0.0855211 0.270553 0 -0.0810704 0.301791 0 -0.0832284 0.285624 0 -0.0756983 0.328547 0 -0.0874972 0.246381 0 -0.0763877 0.321564 0 -0.0861758 0.253385 0 -0.0776594 0.30998 0 -0.084116 0.264995 0 -0.0794943 0.295348 0 -0.0817479 0.279644 0 -0.0943585 0.396865 0 -0.100532 0.29106 0 -0.0944389 0.387818 0 -0.0995504 0.300021 0 -0.0947509 0.372832 0 -0.0981143 0.3149 0 -0.0954664 0.353942 0 -0.0966384 0.333718 0 -0.0821254 0.353901 0 -0.0920916 0.263318 0 -0.0826078 0.346171 0 -0.0908711 0.271004 0 -0.0835558 0.333359 0 -0.0890028 0.283759 0 -0.0850178 0.317198 0 -0.0869181 0.299882 0 -0.09321 0.393042 0 -0.0997406 0.28862 0 -0.093328 0.384114 0 -0.0987355 0.297463 0 -0.0936992 0.369325 0 -0.0972578 0.312147 0 -0.0944842 0.350681 0 -0.0957243 0.330719 0 -0.0830628 0.357405 0 -0.0927456 0.265618 0 -0.0835144 0.34957 0 -0.0915418 0.273402 0 -0.0844137 0.336584 0 -0.0897046 0.286323 0 -0.0858191 0.320206 0 -0.0876648 0.302659 0 -0.091351 0.386777 0 -0.0984615 0.284613 0 -0.0915299 0.378043 0 -0.0974186 0.293264 0 -0.0919974 0.363574 0 -0.0958737 0.30763 0 -0.0928956 0.345333 0 -0.0942466 0.325801 0 -0.0846584 0.363273 0 -0.0938531 0.26945 0 -0.0850575 0.35526 0 -0.0926789 0.277402 0 -0.0858739 0.341982 0 -0.0908959 0.290604 0 -0.0871821 0.325236 0 -0.0889337 0.307299 0 -0.0890835 0.378992 0 -0.0969027 0.279617 0 -0.0893369 0.370498 0 -0.0958144 0.288032 0 -0.0899224 0.356426 0 -0.0941877 0.302007 0 -0.0909594 0.338684 0 -0.0924463 0.319684 0 -0.0867477 0.370789 0 -0.0952957 0.274327 0 -0.087078 0.362547 0 -0.0941614 0.282498 0 -0.0877854 0.348891 0 -0.0924513 0.296067 0 -0.0889657 0.33167 0 -0.0905927 0.313228 0 -0.10104 0.286715 0 -0.118809 0.184018 0 -0.102151 0.277777 0 -0.116941 0.192499 0 -0.104175 0.263013 0 -0.113972 0.206693 0 -0.10704 0.244497 0 -0.110468 0.224823 0 -0.0927093 0.259591 0 -0.111768 0.170835 0 -0.0940333 0.251922 0 -0.109902 0.178251 0 -0.0963719 0.239243 0 -0.106886 0.190614 0 -0.0995596 0.223312 0 -0.103241 0.206331 0 -0.10026 0.284333 0 -0.118181 0.182979 0 -0.101392 0.275514 0 -0.116309 0.191355 0 -0.103449 0.260947 0 -0.11333 0.20537 0 -0.106348 0.242678 0 -0.109806 0.223265 0 -0.0933557 0.261843 0 -0.112348 0.172039 0 -0.0946653 0.254076 0 -0.110478 0.179535 0 -0.0969833 0.241239 0 -0.107461 0.192034 0 -0.100151 0.225113 0 -0.103819 0.207931 0 -0.0989978 0.280419 0 -0.117155 0.181221 0 -0.100164 0.271793 0 -0.115279 0.189431 0 -0.102273 0.257545 0 -0.112286 0.20316 0 -0.105227 0.239674 0 -0.108732 0.220679 0 -0.0944499 0.265594 0 -0.113314 0.174002 0 -0.0957338 0.257662 0 -0.111439 0.181633 0 -0.098015 0.244553 0 -0.108421 0.194364 0 -0.101147 0.228095 0 -0.10479 0.210568 0 -0.0974601 0.275538 0 -0.115884 0.178941 0 -0.0986677 0.267146 0 -0.114005 0.186952 0 -0.100837 0.253286 0 -0.110998 0.200337 0 -0.103856 0.235897 0 -0.107413 0.217405 0 -0.0958742 0.270366 0 -0.114545 0.176421 0 -0.0971228 0.262216 0 -0.112666 0.184229 0 -0.0993529 0.248753 0 -0.109651 0.197268 0 -0.102434 0.231857 0 -0.106039 0.213877 0 -0.112404 0.166677 0 -0.134052 0.083158 0 -0.114312 0.159351 0 -0.132432 0.0900485 0 -0.117508 0.147292 0 -0.129594 0.101564 0 -0.121548 0.132227 0 -0.125798 0.116263 0 -0.105673 0.151938 0 -0.125665 0.076633 0 -0.107488 0.14541 0 -0.124209 0.0829194 0 -0.110502 0.134633 0 -0.121642 0.093396 0 -0.114266 0.121111 0 -0.118181 0.106714 0 -0.111825 0.165488 0 -0.13333 0.0826918 0 -0.113725 0.158236 0 -0.131726 0.0895333 0 -0.116908 0.146295 0 -0.128913 0.100963 0 -0.120925 0.131368 0 -0.125146 0.115543 0 -0.106242 0.153251 0 -0.126367 0.077262 0 -0.108066 0.14666 0 -0.124898 0.0836021 0 -0.111095 0.13578 0 -0.122311 0.0941693 0 -0.114882 0.122132 0 -0.118824 0.107605 0 -0.110867 0.163488 0 -0.132136 0.0818761 0 -0.112756 0.156355 0 -0.130555 0.0886353 0 -0.115914 0.144604 0 -0.127783 0.0999205 0 -0.119892 0.129904 0 -0.124065 0.114305 0 -0.107185 0.155407 0 -0.127538 0.0782807 0 -0.109023 0.14871 0 -0.126048 0.0847089 0 -0.112079 0.137657 0 -0.123425 0.0954253 0 -0.115905 0.1238 0 -0.119892 0.109056 0 -0.109664 0.160911 0 -0.130631 0.0807761 0 -0.111537 0.153924 0 -0.129082 0.0874296 0 -0.114663 0.142407 0 -0.126359 0.0985314 0 -0.118592 0.127987 0 -0.122703 0.11267 0 -0.108379 0.158089 0 -0.129025 0.0795179 0 -0.110234 0.151254 0 -0.127507 0.0860558 0 -0.113324 0.13998 0 -0.124837 0.0969591 0 -0.1172 0.125854 0 -0.121246 0.110835 0 -0.119736 0.179926 0 -0.142805 0.0867354 0 -0.121681 0.171549 0 -0.141013 0.0941937 0 -0.124987 0.157831 0 -0.137898 0.106766 0 -0.129235 0.140827 0 -0.133779 0.122995 0 -0.112686 0.167248 0 -0.134402 0.0833768 0 -0.114597 0.159886 0 -0.132775 0.090291 0 -0.1178 0.14777 0 -0.129925 0.101849 0 -0.12185 0.132636 0 -0.126114 0.116605 0 -0.119109 0.178936 0 -0.142098 0.0866241 0 -0.121055 0.170659 0 -0.140318 0.0940373 0 -0.124358 0.157097 0 -0.137222 0.106521 0 -0.128596 0.140275 0 -0.133124 0.122614 0 -0.113268 0.168415 0 -0.135124 0.0838117 0 -0.115184 0.160977 0 -0.133481 0.0907741 0 -0.118401 0.14874 0 -0.130607 0.102418 0 -0.122473 0.133464 0 -0.126766 0.117292 0 -0.118084 0.177257 0 -0.140922 0.0863579 0 -0.120029 0.169138 0 -0.139163 0.0936961 0 -0.123324 0.155827 0 -0.1361 0.106034 0 -0.127543 0.139294 0 -0.132038 0.121908 0 -0.114237 0.170313 0 -0.136318 0.0844812 0 -0.116162 0.162746 0 -0.134651 0.0915226 0 -0.1194 0.150305 0 -0.131736 0.103308 0 -0.123507 0.134789 0 -0.127846 0.118381 0 -0.116812 0.175072 0 -0.13943 0.085886 0 -0.118754 0.167143 0 -0.1377 0.093129 0 -0.122035 0.15413 0 -0.134682 0.105286 0 -0.126222 0.137945 0 -0.130672 0.120892 0 -0.115471 0.172647 0 -0.137823 0.0852259 0 -0.117406 0.16491 0 -0.136124 0.0923654 0 -0.120666 0.152201 0 -0.133158 0.10433 0 -0.124815 0.13637 0 -0.129209 0.119657 0 -0.143647 0.0831513 0 -0.155155 0.00162519 0 -0.145317 0.0758396 0 -0.155045 0.00833136 0 -0.147871 0.0639223 0 -0.154436 0.0194937 0 -0.150648 0.0491941 0 -0.152975 0.0337111 0 -0.135163 0.0800375 0 -0.145364 0.001597 0 -0.136667 0.0731914 0 -0.145264 0.00817984 0 -0.13895 0.0619383 0 -0.144732 0.0191047 0 -0.141411 0.0478797 0 -0.143455 0.0329412 0 -0.142934 0.0830593 0 -0.154345 0.00162834 0 -0.144592 0.0757828 0 -0.154235 0.00834623 0 -0.147126 0.0639098 0 -0.153632 0.0195226 0 -0.149879 0.0492155 0 -0.152184 0.0337455 0 -0.135892 0.0804499 0 -0.146208 0.00160388 0 -0.137411 0.0735596 0 -0.146107 0.00821528 0 -0.139718 0.0622385 0 -0.145568 0.0191885 0 -0.142206 0.0481025 0 -0.144275 0.0330891 0 -0.141748 0.0828259 0 -0.152988 0.00163088 0 -0.143384 0.0756094 0 -0.152878 0.00835747 0 -0.145882 0.0638152 0 -0.152285 0.0195407 0 -0.148594 0.0491876 0 -0.150862 0.0337549 0 -0.137099 0.081083 0 -0.147609 0.00161387 0 -0.138642 0.0741212 0 -0.147506 0.00826677 0 -0.140989 0.0626919 0 -0.146955 0.0193109 0 -0.143525 0.0484349 0 -0.145635 0.0333073 0 -0.140242 0.0823963 0 -0.151253 0.00162968 0 -0.141849 0.0752588 0 -0.151145 0.00834968 0 -0.1443 0.0635734 0 -0.150565 0.0195145 0 -0.146956 0.0490478 0 -0.149174 0.0336879 0 -0.138618 0.0817829 0 -0.149373 0.00162353 0 -0.140193 0.0747343 0 -0.149267 0.008317 0 -0.142591 0.0631764 0 -0.148702 0.0194321 0 -0.145185 0.0487807 0 -0.147347 0.0335282 0 -0.00341226 0.325688 0 -0.00758529 0.320736 0 -0.00371981 0.325375 0 -0.00717382 0.321256 0 -0.00424607 0.324808 0 -0.00651799 0.322082 0 -0.00494247 0.324009 0 -0.00573392 0.323055 0 -0.00255818 0.305411 0 -0.00592024 0.29959 0 -0.00279774 0.305051 0 -0.00558083 0.300209 0 -0.00321159 0.304393 0 -0.00504247 0.301189 0 -0.00376597 0.303461 0 -0.00440385 0.30234 0 -0.00334026 0.323866 0 -0.00744487 0.318832 0 -0.00364208 0.323549 0 -0.0070395 0.319361 0 -0.00415887 0.322973 0 -0.0063936 0.320201 0 -0.0048433 0.322161 0 -0.00562181 0.321192 0 -0.00263038 0.307033 0 -0.00606275 0.301278 0 -0.0028758 0.306676 0 -0.00571718 0.301889 0 -0.00329939 0.306026 0 -0.00516869 0.302858 0 -0.00386616 0.305103 0 -0.00451744 0.303995 0 -0.00322014 0.320882 0 -0.00721129 0.315715 0 -0.00351244 0.320557 0 -0.00681605 0.316259 0 -0.00401351 0.319967 0 -0.00618662 0.317122 0 -0.00467811 0.319135 0 -0.00543517 0.31814 0 -0.00275076 0.309768 0 -0.00629892 0.304126 0 -0.00300586 0.309418 0 -0.00594314 0.304725 0 -0.00344551 0.308779 0 -0.00537794 0.305673 0 -0.00403262 0.307874 0 -0.0047059 0.306787 0 -0.00306758 0.317181 0 -0.00691528 0.311853 0 -0.00334783 0.316848 0 -0.00653286 0.312416 0 -0.00382901 0.316241 0 -0.00592426 0.313308 0 -0.00446855 0.315384 0 -0.00519852 0.314358 0 -0.00290349 0.3133 0 -0.00659667 0.307806 0 -0.00317075 0.312958 0 -0.00622803 0.308387 0 -0.00363051 0.312334 0 -0.00564184 0.309309 0 -0.00424303 0.311452 0 -0.00494379 0.310393 0 -6.23551e-05 0.327499 0 -0.00326552 0.325831 0 -0.000319794 0.327502 0 -0.00296817 0.32611 0 -0.000749281 0.327444 0 -0.00248891 0.326518 0 -0.00129953 0.327262 0 -0.00190499 0.326937 0 -4.59565e-05 0.307449 0 -0.00244454 0.305576 0 -0.000235607 0.307452 0 -0.00221555 0.305894 0 -0.000552101 0.307388 0 -0.00185001 0.306357 0 -0.000958925 0.307189 0 -0.00141002 0.306828 0 -6.09798e-05 0.325699 0 -0.00319632 0.324012 0 -0.000312727 0.325702 0 -0.00290473 0.324294 0 -0.000732713 0.325643 0 -0.00243508 0.324708 0 -0.00127088 0.32546 0 -0.00186331 0.325132 0 -4.73525e-05 0.309054 0 -0.0025139 0.307196 0 -0.000242757 0.309056 0 -0.00227907 0.307511 0 -0.000568794 0.308992 0 -0.00190388 0.30797 0 -0.000987681 0.308793 0 -0.00145175 0.308436 0 -5.86831e-05 0.32275 0 -0.00308084 0.32103 0 -0.000300926 0.322752 0 -0.00279885 0.321319 0 -0.000705034 0.322692 0 -0.00234518 0.321741 0 -0.00122301 0.322506 0 -0.00179369 0.322172 0 -4.96748e-05 0.311759 0 -0.00262958 0.309928 0 -0.000254663 0.311761 0 -0.00238506 0.310238 0 -0.000596627 0.311697 0 -0.00199381 0.310689 0 -0.00103568 0.311501 0 -0.00152143 0.311148 0 -5.5762e-05 0.319091 0 -0.00293416 0.317334 0 -0.000285916 0.319093 0 -0.00266433 0.317629 0 -0.000669835 0.319032 0 -0.00223095 0.318061 0 -0.00116214 0.318842 0 -0.00170519 0.318502 0 -5.26133e-05 0.315253 0 -0.00277639 0.313456 0 -0.000269743 0.315254 0 -0.00251965 0.313759 0 -0.000631931 0.315192 0 -0.00210808 0.314201 0 -0.00109663 0.314998 0 -0.00160998 0.314652 0 -0.00425322 0.349024 0 -0.00926413 0.345229 0 -0.00462979 0.348779 0 -0.00877799 0.345622 0 -0.00527102 0.348338 0 -0.00800012 0.346248 0 -0.00611392 0.347721 0 -0.00706477 0.34699 0 -0.00344704 0.326578 0 -0.00765329 0.321667 0 -0.00375737 0.326267 0 -0.00723886 0.322182 0 -0.00428822 0.325704 0 -0.00657821 0.323 0 -0.00499044 0.324911 0 -0.00578818 0.323965 0 -0.00418715 0.34705 0 -0.00912942 0.343148 0 -0.00455817 0.346799 0 -0.00864947 0.343553 0 -0.00519011 0.346346 0 -0.0078817 0.344197 0 -0.00602108 0.345712 0 -0.00695885 0.34496 0 -0.00351833 0.328421 0 -0.00779303 0.323595 0 -0.00383439 0.328116 0 -0.00737252 0.324101 0 -0.00437471 0.327562 0 -0.00670194 0.324904 0 -0.00508891 0.326782 0 -0.00589963 0.325852 0 -0.0040766 0.343803 0 -0.00890514 0.339728 0 -0.00443838 0.343541 0 -0.0084354 0.340151 0 -0.00505486 0.343069 0 -0.00768431 0.340825 0 -0.00586601 0.342408 0 -0.0067821 0.341623 0 -0.0036354 0.331508 0 -0.00802357 0.326825 0 -0.00396091 0.33121 0 -0.00759299 0.327315 0 -0.00451691 0.330671 0 -0.00690596 0.328093 0 -0.00525099 0.329914 0 -0.00608325 0.329012 0 -0.0039352 0.339747 0 -0.00862032 0.335465 0 -0.00428526 0.339473 0 -0.00816338 0.335911 0 -0.00488213 0.338978 0 -0.00743323 0.33662 0 -0.00566821 0.338284 0 -0.00655697 0.337459 0 -0.0037812 0.335454 0 -0.00831261 0.33096 0 -0.00411859 0.335167 0 -0.00786933 0.331429 0 -0.00469434 0.334649 0 -0.00716153 0.332174 0 -0.00545352 0.333922 0 -0.00631301 0.333056 0 -7.83453e-05 0.350487 0 -0.00407306 0.349136 0 -0.000401845 0.350486 0 -0.00370701 0.349355 0 -0.000941406 0.350433 0 -0.00311439 0.34968 0 -0.00163158 0.35028 0 -0.00238832 0.350015 0 -6.30193e-05 0.328378 0 -0.00329895 0.32672 0 -0.000323206 0.32838 0 -0.0029988 0.326997 0 -0.00075728 0.328323 0 -0.0025149 0.327403 0 -0.00131336 0.328142 0 -0.00192511 0.327819 0 -7.70964e-05 0.34855 0 -0.00400967 0.347166 0 -0.00039544 0.348548 0 -0.0036491 0.347391 0 -0.000926418 0.348494 0 -0.00306546 0.347723 0 -0.00160567 0.348339 0 -0.00235058 0.348068 0 -6.43803e-05 0.330198 0 -0.00336746 0.328562 0 -0.000330196 0.330201 0 -0.00306157 0.328834 0 -0.000773663 0.330144 0 -0.00256814 0.329235 0 -0.00134169 0.329965 0 -0.00196631 0.329646 0 -7.5003e-05 0.345357 0 -0.00390358 0.343923 0 -0.000384705 0.345357 0 -0.00355214 0.344157 0 -0.000901295 0.345302 0 -0.00298351 0.344503 0 -0.00156226 0.345141 0 -0.00228734 0.344861 0 -6.66135e-05 0.333244 0 -0.00347994 0.331644 0 -0.000341661 0.333247 0 -0.00316459 0.33191 0 -0.000800526 0.33319 0 -0.00265547 0.3323 0 -0.00138812 0.333014 0 -0.00203387 0.332702 0 -7.23199e-05 0.341366 0 -0.00376785 0.339873 0 -0.000370942 0.341367 0 -0.00342805 0.340118 0 -0.000869085 0.341311 0 -0.00287855 0.34048 0 -0.0015066 0.341145 0 -0.0022063 0.340853 0 -6.93912e-05 0.337137 0 -0.00361998 0.335586 0 -0.000355917 0.337138 0 -0.00329278 0.335842 0 -0.000833912 0.337082 0 -0.00276406 0.336219 0 -0.00144582 0.336911 0 -0.00211783 0.336608 0 -0.0165704 0.33949 0 -0.0250639 0.333636 0 -0.017231 0.338999 0 -0.0242791 0.334132 0 -0.0183522 0.338177 0 -0.0230029 0.334959 0 -0.0198134 0.337133 0 -0.021437 0.336008 0 -0.0139956 0.314023 0 -0.0215573 0.306011 0 -0.0145781 0.31336 0 -0.0208533 0.3067 0 -0.0155693 0.312247 0 -0.0197104 0.307845 0 -0.0168656 0.310826 0 -0.0183115 0.309287 0 -0.0163508 0.337232 0 -0.0247579 0.33118 0 -0.0170044 0.336724 0 -0.0239806 0.331694 0 -0.0181137 0.335876 0 -0.022717 0.33255 0 -0.0195596 0.334797 0 -0.0211667 0.333634 0 -0.0142166 0.3161 0 -0.021852 0.308259 0 -0.0148054 0.31545 0 -0.0211416 0.308933 0 -0.0158071 0.31436 0 -0.0199884 0.310052 0 -0.0171166 0.312969 0 -0.0185764 0.311463 0 -0.0159878 0.333524 0 -0.0242549 0.327152 0 -0.0166298 0.332991 0 -0.0234899 0.327694 0 -0.0177198 0.332099 0 -0.0222465 0.328596 0 -0.0191411 0.330964 0 -0.0207215 0.329739 0 -0.0145814 0.319581 0 -0.0223406 0.31203 0 -0.0151808 0.318954 0 -0.0216197 0.312677 0 -0.0162 0.317903 0 -0.0204489 0.313753 0 -0.0175315 0.316562 0 -0.0190149 0.315111 0 -0.0155305 0.32891 0 -0.0236267 0.322143 0 -0.0161583 0.328345 0 -0.0228766 0.32272 0 -0.0172246 0.327399 0 -0.0216578 0.32368 0 -0.0186158 0.326195 0 -0.0201635 0.324895 0 -0.0150399 0.324042 0 -0.0229592 0.316864 0 -0.0156529 0.323444 0 -0.0222244 0.317478 0 -0.0166946 0.322444 0 -0.0210309 0.318499 0 -0.0180544 0.321167 0 -0.0195683 0.319788 0 -0.00950483 0.345034 0 -0.0162541 0.339728 0 -0.0100106 0.344626 0 -0.0156115 0.340213 0 -0.0108777 0.343927 0 -0.0145738 0.341009 0 -0.0120228 0.343011 0 -0.0133132 0.34199 0 -0.00785889 0.321411 0 -0.0137172 0.314343 0 -0.00829176 0.320873 0 -0.0131526 0.314998 0 -0.00903648 0.319951 0 -0.0122436 0.316065 0 -0.0100247 0.318737 0 -0.0111443 0.317378 0 -0.00936707 0.342948 0 -0.016038 0.337477 0 -0.00986651 0.342527 0 -0.0154024 0.337978 0 -0.010723 0.341808 0 -0.0143762 0.338799 0 -0.0118544 0.340863 0 -0.0131299 0.339811 0 -0.00800161 0.323344 0 -0.0139351 0.316414 0 -0.00844068 0.322816 0 -0.0133641 0.317055 0 -0.00919583 0.321911 0 -0.0124444 0.318101 0 -0.0101974 0.32072 0 -0.0113315 0.319388 0 -0.0091378 0.339519 0 -0.0156805 0.333782 0 -0.00962686 0.339078 0 -0.0150563 0.334308 0 -0.0104659 0.338325 0 -0.0140488 0.33517 0 -0.0115749 0.337335 0 -0.0128258 0.336232 0 -0.00823708 0.326582 0 -0.0142948 0.319884 0 -0.00868639 0.326071 0 -0.013713 0.320502 0 -0.00945875 0.325196 0 -0.0127756 0.321512 0 -0.0104823 0.324044 0 -0.0116403 0.322756 0 -0.00884673 0.335244 0 -0.01523 0.329182 0 -0.0093228 0.33478 0 -0.01462 0.32974 0 -0.01014 0.333985 0 -0.0136356 0.330652 0 -0.0112211 0.33294 0 -0.0124415 0.331775 0 -0.00853234 0.330727 0 -0.0147467 0.32433 0 -0.00899456 0.330238 0 -0.0141514 0.32492 0 -0.00978855 0.329401 0 -0.0131915 0.325884 0 -0.0108399 0.3283 0 -0.0120279 0.32707 0 -0.000185297 0.374712 0 -0.0107501 0.371638 0 -0.000952887 0.374686 0 -0.00963853 0.372085 0 -0.00224894 0.374527 0 -0.00791356 0.372769 0 -0.00395523 0.374137 0 -0.00591709 0.373514 0 -0.000157953 0.351432 0 -0.00920944 0.346338 0 -0.000812164 0.351395 0 -0.00825 0.347096 0 -0.0019169 0.351143 0 -0.00676466 0.348247 0 -0.00337293 0.350511 0 -0.00505115 0.349486 0 -0.000183117 0.372701 0 -0.0106191 0.369426 0 -0.000941634 0.372673 0 -0.00952135 0.369903 0 -0.00222222 0.372504 0 -0.0078177 0.370632 0 -0.0039079 0.37209 0 -0.0058458 0.371426 0 -0.000160419 0.353382 0 -0.00934195 0.348433 0 -0.000824833 0.353345 0 -0.00837014 0.349168 0 -0.00194668 0.353098 0 -0.00686499 0.350284 0 -0.00342479 0.352484 0 -0.00512756 0.351488 0 -0.000179439 0.369377 0 -0.0104024 0.365782 0 -0.000922664 0.369347 0 -0.009327 0.366307 0 -0.00217727 0.369163 0 -0.00765819 0.36711 0 -0.00382853 0.368709 0 -0.00572672 0.367981 0 -0.000164454 0.356628 0 -0.00956065 0.351932 0 -0.000845568 0.356592 0 -0.00856819 0.352626 0 -0.00199544 0.356356 0 -0.00703008 0.353684 0 -0.00350982 0.355771 0 -0.00525305 0.354825 0 -0.000174684 0.365202 0 -0.010129 0.361225 0 -0.000898174 0.36517 0 -0.0090812 0.361809 0 -0.00211938 0.364967 0 -0.0074556 0.362699 0 -0.00372671 0.364467 0 -0.0055747 0.363663 0 -0.000169451 0.360751 0 -0.00983536 0.35639 0 -0.000871253 0.360716 0 -0.00881648 0.357033 0 -0.0020559 0.360496 0 -0.00723645 0.358011 0 -0.00361547 0.35995 0 -0.00540939 0.35907 0 -0.000209102 0.399506 0 -0.0123904 0.399434 0 -0.00107699 0.399505 0 -0.0110888 0.399445 0 -0.00254888 0.399501 0 -0.00907608 0.39946 0 -0.0044995 0.399492 0 -0.00675955 0.399478 0 -0.000186344 0.375689 0 -0.0108137 0.372715 0 -0.000958295 0.375664 0 -0.0096954 0.373147 0 -0.0022618 0.37551 0 -0.00795998 0.373809 0 -0.00397804 0.375133 0 -0.00595153 0.374529 0 -0.000207376 0.397469 0 -0.0122515 0.39711 0 -0.00106786 0.397466 0 -0.0109674 0.397161 0 -0.00252631 0.397447 0 -0.00898061 0.39724 0 -0.0044573 0.397401 0 -0.00669219 0.397327 0 -0.000188477 0.377706 0 -0.0109449 0.374941 0 -0.000969322 0.377683 0 -0.00981256 0.375342 0 -0.00228805 0.377539 0 -0.00805545 0.375956 0 -0.00402473 0.377188 0 -0.00602219 0.376626 0 -0.000204422 0.394096 0 -0.0120238 0.393277 0 -0.00105231 0.394089 0 -0.0107677 0.393393 0 -0.00248809 0.394046 0 -0.00882286 0.393574 0 -0.00438647 0.39394 0 -0.0065801 0.393772 0 -0.00019194 0.381055 0 -0.0111631 0.378652 0 -0.000987248 0.381034 0 -0.0100069 0.378999 0 -0.00233086 0.380909 0 -0.00821319 0.379532 0 -0.00410115 0.380603 0 -0.00613839 0.380114 0 -0.000200533 0.389844 0 -0.0117402 0.388475 0 -0.00103195 0.389832 0 -0.0105181 0.388671 0 -0.00243848 0.38976 0 -0.00862434 0.388973 0 -0.0042955 0.389584 0 -0.00643769 0.389305 0 -0.000196173 0.385291 0 -0.0114401 0.38337 0 -0.00100922 0.385274 0 -0.0102528 0.383646 0 -0.00238358 0.385174 0 -0.00841169 0.384071 0 -0.00419592 0.384928 0 -0.00628358 0.384536 0 -0.0130478 0.399429 0 -0.033652 0.399296 0 -0.014456 0.399419 0 -0.0315831 0.399307 0 -0.0169447 0.3994 0 -0.0282705 0.399326 0 -0.020349 0.399376 0 -0.0243087 0.39935 0 -0.0113775 0.372498 0 -0.0290148 0.366492 0 -0.0125833 0.372035 0 -0.0272342 0.367009 0 -0.0147103 0.371232 0 -0.0243905 0.36788 0 -0.0176168 0.370169 0 -0.0209992 0.36899 0 -0.0128999 0.397084 0 -0.0332131 0.396407 0 -0.0142885 0.39703 0 -0.0311723 0.396463 0 -0.0167419 0.396937 0 -0.0279057 0.396559 0 -0.0200973 0.396815 0 -0.0240002 0.396682 0 -0.0115159 0.37474 0 -0.0293718 0.369191 0 -0.012737 0.374311 0 -0.0275701 0.369667 0 -0.014891 0.373568 0 -0.024692 0.370471 0 -0.0178341 0.372584 0 -0.0212589 0.371495 0 -0.0126577 0.393218 0 -0.032506 0.391657 0 -0.014015 0.393094 0 -0.0305103 0.391788 0 -0.0164121 0.392881 0 -0.0273173 0.392009 0 -0.0196894 0.392601 0 -0.0235014 0.392295 0 -0.0117461 0.378477 0 -0.0299769 0.373703 0 -0.0129932 0.378107 0 -0.0281386 0.374111 0 -0.0151932 0.377464 0 -0.0252015 0.3748 0 -0.0181993 0.376616 0 -0.0216967 0.375679 0 -0.0123568 0.388377 0 -0.0316477 0.385733 0 -0.0136764 0.388168 0 -0.0297062 0.385956 0 -0.0160058 0.387809 0 -0.0266014 0.386333 0 -0.0191896 0.387337 0 -0.022893 0.386818 0 -0.012039 0.383231 0 -0.0307661 0.379466 0 -0.0133201 0.382937 0 -0.0288795 0.379786 0 -0.0155809 0.382428 0 -0.0258639 0.380326 0 -0.0186701 0.381757 0 -0.0222639 0.381018 0 -0.0297198 0.36493 0 -0.0535003 0.359369 0 -0.0315593 0.364408 0 -0.0513345 0.3598 0 -0.0347016 0.363565 0 -0.0477851 0.360529 0 -0.0388178 0.362537 0 -0.0433936 0.361479 0 -0.0257944 0.334481 0 -0.0469452 0.324043 0 -0.02742 0.333519 0 -0.0450102 0.324853 0 -0.0302025 0.331952 0 -0.0418419 0.32623 0 -0.0338562 0.330025 0 -0.0379272 0.328027 0 -0.029361 0.362238 0 -0.0528856 0.356247 0 -0.0311796 0.361676 0 -0.0507422 0.356711 0 -0.0342869 0.360768 0 -0.0472298 0.357497 0 -0.038358 0.359662 0 -0.0428847 0.358521 0 -0.0261095 0.336977 0 -0.0474549 0.326941 0 -0.027751 0.33605 0 -0.0455029 0.327719 0 -0.0305603 0.334541 0 -0.0423064 0.329041 0 -0.0342481 0.332689 0 -0.0383565 0.330768 0 -0.0287784 0.357817 0 -0.0518929 0.35112 0 -0.0305636 0.357191 0 -0.0497855 0.351638 0 -0.0336149 0.356177 0 -0.0463325 0.352517 0 -0.0376138 0.354939 0 -0.0420617 0.353663 0 -0.0266376 0.341153 0 -0.0483166 0.331787 0 -0.0283063 0.340285 0 -0.0463353 0.332513 0 -0.0311613 0.338875 0 -0.0430905 0.333746 0 -0.0349079 0.337146 0 -0.0390803 0.335355 0 -0.0280626 0.35231 0 -0.0506839 0.344733 0 -0.0298079 0.351604 0 -0.0486198 0.345319 0 -0.0327917 0.350458 0 -0.0452383 0.346314 0 -0.0367039 0.349058 0 -0.0410571 0.347612 0 -0.0273164 0.346494 0 -0.049437 0.337985 0 -0.029021 0.345703 0 -0.0474169 0.338643 0 -0.0319364 0.344419 0 -0.0441081 0.339762 0 -0.0357606 0.342848 0 -0.0400177 0.341222 0 -0.0346744 0.399291 0 -0.0621021 0.39918 0 -0.0368169 0.39928 0 -0.0596238 0.399188 0 -0.0404669 0.399263 0 -0.0555551 0.399203 0 -0.045231 0.399243 0 -0.0505077 0.399222 0 -0.0298961 0.366244 0 -0.0538031 0.360892 0 -0.0317458 0.365741 0 -0.0516262 0.361307 0 -0.0349055 0.364929 0 -0.0480585 0.362008 0 -0.0390439 0.36394 0 -0.043644 0.362922 0 -0.0342218 0.39638 0 -0.0613157 0.395812 0 -0.0363358 0.396326 0 -0.0588653 0.395856 0 -0.0399385 0.396239 0 -0.0548432 0.395931 0 -0.0446427 0.396135 0 -0.0498553 0.396028 0 -0.0302636 0.368963 0 -0.0544361 0.364045 0 -0.0321349 0.3685 0 -0.0522361 0.364426 0 -0.0353311 0.367753 0 -0.04863 0.365071 0 -0.0395163 0.366845 0 -0.0441674 0.36591 0 -0.0334926 0.391595 0 -0.0600472 0.390273 0 -0.0355611 0.391469 0 -0.0576422 0.390377 0 -0.0390877 0.391268 0 -0.053696 0.39055 0 -0.0436955 0.391024 0 -0.0488043 0.390775 0 -0.0308865 0.373508 0 -0.0555134 0.369316 0 -0.032795 0.373113 0 -0.0532738 0.369641 0 -0.0360536 0.372475 0 -0.0496022 0.370191 0 -0.0403191 0.371702 0 -0.0450575 0.370905 0 -0.0326079 0.385627 0 -0.0585063 0.383361 0 -0.0346214 0.385412 0 -0.0561571 0.383538 0 -0.0380562 0.385067 0 -0.0523037 0.383835 0 -0.042547 0.38465 0 -0.0475298 0.384221 0 -0.0316993 0.379314 0 -0.0569248 0.376046 0 -0.0336571 0.379005 0 -0.0546334 0.3763 0 -0.0369984 0.378507 0 -0.050876 0.376728 0 -0.0413697 0.377905 0 -0.0462232 0.377285 0 -0.0633101 0.399176 0 -0.0936938 0.399063 0 -0.0658086 0.399167 0 -0.0909999 0.399074 0 -0.0699798 0.399152 0 -0.086585 0.399092 0 -0.0753035 0.399134 0 -0.0810965 0.399113 0 -0.0548652 0.360693 0 -0.0814526 0.355886 0 -0.0570636 0.360288 0 -0.0791271 0.356327 0 -0.0607363 0.359624 0 -0.0752959 0.357034 0 -0.0654209 0.358793 0 -0.0705041 0.357895 0 -0.0625102 0.39579 0 -0.0925447 0.395223 0 -0.0649812 0.395746 0 -0.0898852 0.395279 0 -0.0691068 0.395672 0 -0.0855246 0.395367 0 -0.0743722 0.395578 0 -0.0801002 0.395472 0 -0.0555095 0.363862 0 -0.0823906 0.359409 0 -0.0577312 0.363489 0 -0.080037 0.35982 0 -0.0614426 0.362878 0 -0.076161 0.360478 0 -0.0661769 0.36211 0 -0.0713153 0.361278 0 -0.0612198 0.390223 0 -0.0906845 0.388928 0 -0.0636458 0.390121 0 -0.088081 0.389054 0 -0.0676969 0.389951 0 -0.0838085 0.389254 0 -0.0728668 0.389734 0 -0.0784888 0.389492 0 -0.0566059 0.369159 0 -0.0839874 0.365307 0 -0.0588672 0.36884 0 -0.0815857 0.365667 0 -0.0626445 0.368316 0 -0.0776333 0.366242 0 -0.0674635 0.367656 0 -0.0726958 0.366936 0 -0.059652 0.383276 0 -0.0884155 0.381105 0 -0.0620225 0.383102 0 -0.0858804 0.381314 0 -0.0659816 0.382813 0 -0.081716 0.381646 0 -0.0710338 0.382447 0 -0.0765249 0.382042 0 -0.0580425 0.375923 0 -0.0860782 0.372861 0 -0.0603555 0.375673 0 -0.0836135 0.373152 0 -0.064219 0.375262 0 -0.0795609 0.373614 0 -0.0691485 0.37474 0 -0.0745034 0.374169 0 -0.103509 0.0219912 0 -0.104685 0.000444903 0 -0.103712 0.0201586 0 -0.104686 0.00227894 0 -0.104006 0.0171189 0 -0.104647 0.00532046 0 -0.104302 0.0132798 0 -0.104525 0.00916073 0 -0.100735 0.0230642 0 -0.101599 0.000464317 0 -0.100883 0.021139 0 -0.101597 0.00238001 0 -0.101097 0.017945 0 -0.101565 0.00556212 0 -0.101311 0.0139115 0 -0.101473 0.0095874 0 -0.103308 0.0220727 0 -0.104457 0.000446472 0 -0.103507 0.0202336 0 -0.104458 0.00228706 0 -0.103795 0.0171826 0 -0.10442 0.00533973 0 -0.104083 0.0133291 0 -0.104301 0.00919438 0 -0.101024 0.0229643 0 -0.101916 0.000462589 0 -0.101178 0.0210482 0 -0.101914 0.00237099 0 -0.101399 0.0178691 0 -0.101882 0.00554046 0 -0.10162 0.013854 0 -0.101788 0.00954888 0 -0.102968 0.0222124 0 -0.104071 0.00044911 0 -0.10316 0.0203618 0 -0.104073 0.00230075 0 -0.103436 0.0172914 0 -0.104036 0.00537228 0 -0.103713 0.0134129 0 -0.103922 0.00925146 0 -0.101475 0.0228017 0 -0.102411 0.000459752 0 -0.101637 0.0209003 0 -0.10241 0.00235618 0 -0.10187 0.0177451 0 -0.102377 0.0055049 0 -0.102103 0.0137599 0 -0.10228 0.00948574 0 -0.102518 0.0223964 0 -0.103566 0.000452505 0 -0.1027 0.0205302 0 -0.103567 0.00231841 0 -0.102963 0.0174338 0 -0.103533 0.00541441 0 -0.103226 0.0135223 0 -0.103424 0.00932561 0 -0.102 0.0226023 0 -0.10299 0.000456222 0 -0.102172 0.0207184 0 -0.102991 0.00233777 0 -0.10242 0.0175924 0 -0.102957 0.00546075 0 -0.102667 0.0136435 0 -0.102854 0.00940748 0 -0.0975888 0.0464498 0 -0.100514 0.0240488 0 -0.0979221 0.044561 0 -0.100347 0.0259747 0 -0.0984392 0.0414223 0 -0.100037 0.0291597 0 -0.0990294 0.037447 0 -0.0995865 0.0331663 0 -0.0920281 0.0511167 0 -0.0934252 0.0260373 0 -0.0921849 0.0489676 0 -0.0933433 0.0281578 0 -0.092429 0.04541 0 -0.0931926 0.0316795 0 -0.0927091 0.0409292 0 -0.0929755 0.0361359 0 -0.0973835 0.0466726 0 -0.100204 0.0241558 0 -0.0977056 0.0447738 0 -0.100043 0.0260913 0 -0.0982049 0.0416185 0 -0.0997448 0.0292923 0 -0.0987744 0.0376223 0 -0.0993113 0.0333194 0 -0.0929288 0.0504393 0 -0.0944826 0.0257652 0 -0.0931051 0.0483315 0 -0.0943927 0.0278579 0 -0.0933787 0.0448396 0 -0.0942268 0.0313309 0 -0.0936913 0.0404368 0 -0.0939871 0.0357209 0 -0.0969933 0.0470736 0 -0.0996309 0.0243434 0 -0.0972956 0.0451559 0 -0.0994808 0.026296 0 -0.0977635 0.0419695 0 -0.0992026 0.029526 0 -0.0982964 0.0379344 0 -0.0987982 0.0335905 0 -0.0941851 0.049472 0 -0.0959875 0.0253719 0 -0.0943917 0.0474221 0 -0.0958846 0.0274249 0 -0.0947114 0.0440226 0 -0.0956942 0.0308281 0 -0.0950752 0.0397297 0 -0.0954178 0.0351235 0 -0.0963566 0.0476731 0 -0.0987446 0.0246125 0 -0.0966311 0.0457249 0 -0.0986091 0.0265906 0 -0.0970558 0.0424887 0 -0.0983579 0.0298639 0 -0.0975386 0.0383925 0 -0.0979925 0.0339853 0 -0.0954072 0.0484899 0 -0.0975038 0.0249637 0 -0.0956485 0.0464969 0 -0.0973848 0.0269759 0 -0.0960215 0.0431884 0 -0.0971644 0.0303084 0 -0.0964454 0.0390046 0 -0.0968437 0.0345083 0 -0.0994483 0.0442283 0 -0.103403 0.0228801 0 -0.0998883 0.0424218 0 -0.10317 0.02471 0 -0.100576 0.0394229 0 -0.102742 0.0277381 0 -0.101368 0.0356297 0 -0.102124 0.031551 0 -0.0976835 0.0463447 0 -0.100658 0.0239977 0 -0.0980222 0.0444605 0 -0.100487 0.025919 0 -0.0985476 0.0413294 0 -0.100172 0.0290964 0 -0.0991475 0.0373638 0 -0.0997141 0.0330935 0 -0.0993256 0.0443764 0 -0.103205 0.0229648 0 -0.0997581 0.0425656 0 -0.102977 0.0248011 0 -0.100433 0.039559 0 -0.102558 0.0278394 0 -0.101211 0.0357554 0 -0.101953 0.0316645 0 -0.0978718 0.0461325 0 -0.100944 0.0238934 0 -0.0982208 0.0442574 0 -0.100768 0.0258056 0 -0.0987628 0.0411415 0 -0.100441 0.0289678 0 -0.0993822 0.0371951 0 -0.0999677 0.0329455 0 -0.0991148 0.0446352 0 -0.102868 0.02311 0 -0.0995346 0.0428163 0 -0.102649 0.0249575 0 -0.100189 0.0397957 0 -0.102244 0.0280138 0 -0.100943 0.0359731 0 -0.10166 0.0318604 0 -0.0981642 0.0457938 0 -0.101391 0.0237238 0 -0.0985295 0.0439328 0 -0.101205 0.0256213 0 -0.0990974 0.0408403 0 -0.100861 0.0287593 0 -0.0997472 0.0369238 0 -0.100362 0.0327066 0 -0.098832 0.0449852 0 -0.102423 0.0233013 0 -0.0992352 0.0431546 0 -0.102214 0.0251639 0 -0.0998635 0.0401138 0 -0.101828 0.0282447 0 -0.100585 0.0362643 0 -0.101271 0.0321212 0 -0.0985021 0.0453897 0 -0.10191 0.0235159 0 -0.0988865 0.0435444 0 -0.101713 0.0253959 0 -0.0994846 0.0404785 0 -0.101348 0.0285052 0 -0.10017 0.0365963 0 -0.100821 0.0324168 0 -0.0332722 0.187592 0 -0.0409968 0.170101 0 -0.0339052 0.186088 0 -0.0403169 0.171572 0 -0.0349657 0.1836 0 -0.039198 0.17402 0 -0.0363231 0.180469 0 -0.037801 0.177124 0 -0.0360949 0.192042 0 -0.0435317 0.173224 0 -0.0366983 0.190454 0 -0.0428722 0.174833 0 -0.0377122 0.187813 0 -0.0417884 0.177501 0 -0.0390148 0.184466 0 -0.0404384 0.180865 0 -0.0333992 0.187744 0 -0.0410946 0.170117 0 -0.0340292 0.186231 0 -0.0404167 0.171602 0 -0.0350849 0.183726 0 -0.0393014 0.174071 0 -0.0364368 0.180572 0 -0.0379092 0.177201 0 -0.0357202 0.191417 0 -0.0431845 0.172702 0 -0.0363264 0.189834 0 -0.0425232 0.174299 0 -0.0373448 0.187203 0 -0.0414362 0.176948 0 -0.0386528 0.183872 0 -0.0400818 0.180291 0 -0.0336483 0.188082 0 -0.0413001 0.170245 0 -0.0342739 0.186554 0 -0.0406255 0.17175 0 -0.0353226 0.184024 0 -0.0395155 0.174253 0 -0.0366662 0.180834 0 -0.0381304 0.177423 0 -0.0351624 0.190489 0 -0.0426681 0.171944 0 -0.0357729 0.188916 0 -0.0420041 0.173522 0 -0.036798 0.186303 0 -0.0409121 0.176141 0 -0.0381141 0.182998 0 -0.0395509 0.179449 0 -0.0340388 0.188668 0 -0.0416416 0.170586 0 -0.0346593 0.187124 0 -0.0409705 0.172115 0 -0.0357002 0.184563 0 -0.0398667 0.174657 0 -0.0370346 0.181333 0 -0.0384896 0.177874 0 -0.0345633 0.189504 0 -0.0421165 0.171178 0 -0.0351787 0.187944 0 -0.0414491 0.172732 0 -0.0362115 0.185355 0 -0.0403514 0.175314 0 -0.0375366 0.182085 0 -0.0389825 0.178579 0 -0.0295066 0.211244 0 -0.0359979 0.193135 0 -0.0300186 0.209748 0 -0.0354059 0.194717 0 -0.0308846 0.207248 0 -0.0344401 0.197326 0 -0.0320079 0.204056 0 -0.0332493 0.200591 0 -0.0468253 0.229013 0 -0.0539807 0.214508 0 -0.0474438 0.227861 0 -0.0533811 0.215826 0 -0.0484654 0.225916 0 -0.052383 0.217976 0 -0.0497484 0.223401 0 -0.051116 0.22063 0 -0.0299786 0.211961 0 -0.0364312 0.193849 0 -0.0304873 0.210468 0 -0.0358424 0.195435 0 -0.0313478 0.207972 0 -0.034882 0.198049 0 -0.0324641 0.204782 0 -0.0336981 0.201317 0 -0.0437298 0.226297 0 -0.050653 0.21096 0 -0.0443172 0.225071 0 -0.0500619 0.212345 0 -0.0452919 0.223007 0 -0.0490825 0.214609 0 -0.0465239 0.220341 0 -0.0478472 0.21741 0 -0.030941 0.213323 0 -0.0373387 0.195254 0 -0.0314457 0.21184 0 -0.0367551 0.196843 0 -0.0322993 0.209357 0 -0.0358032 0.199458 0 -0.0334063 0.20618 0 -0.0346296 0.202724 0 -0.0395053 0.222447 0 -0.0461473 0.20603 0 -0.0400539 0.221126 0 -0.0455655 0.207502 0 -0.0409705 0.218903 0 -0.0446074 0.209913 0 -0.0421401 0.216041 0 -0.0434098 0.212902 0 -0.0326878 0.215493 0 -0.0390597 0.197633 0 -0.0331934 0.214035 0 -0.0384812 0.199212 0 -0.034047 0.211591 0 -0.0375365 0.201807 0 -0.0351518 0.208458 0 -0.0363701 0.205042 0 -0.0355574 0.218599 0 -0.0419991 0.201274 0 -0.0360764 0.217194 0 -0.0414219 0.202815 0 -0.0369492 0.214835 0 -0.0404766 0.205345 0 -0.0380726 0.211804 0 -0.0393041 0.208491 0 -0.0260262 0.20595 0 -0.032967 0.188323 0 -0.0265813 0.204459 0 -0.0323422 0.189828 0 -0.027517 0.201982 0 -0.0313195 0.192324 0 -0.0287249 0.198846 0 -0.0300527 0.195473 0 -0.0292943 0.210916 0 -0.0358044 0.192812 0 -0.029808 0.209419 0 -0.0352109 0.194392 0 -0.0306767 0.206917 0 -0.0342425 0.196998 0 -0.0318034 0.203725 0 -0.0330484 0.200261 0 -0.0261982 0.206181 0 -0.0330954 0.188479 0 -0.026749 0.204687 0 -0.0324737 0.189994 0 -0.027678 0.202202 0 -0.0314565 0.192503 0 -0.0288777 0.199055 0 -0.0301971 0.195668 0 -0.028881 0.210276 0 -0.0354282 0.192183 0 -0.029398 0.208777 0 -0.0348318 0.193759 0 -0.0302722 0.206272 0 -0.0338585 0.19636 0 -0.0314057 0.203079 0 -0.0326579 0.199618 0 -0.0265161 0.206633 0 -0.0333468 0.188824 0 -0.0270605 0.205134 0 -0.0327299 0.190352 0 -0.0279789 0.20264 0 -0.031721 0.192882 0 -0.029166 0.199477 0 -0.0304727 0.19607 0 -0.0282625 0.209314 0 -0.0348683 0.191251 0 -0.0287849 0.207812 0 -0.0342674 0.192819 0 -0.029668 0.205305 0 -0.0332865 0.195409 0 -0.0308124 0.202113 0 -0.0320758 0.198657 0 -0.0269857 0.207336 0 -0.0337398 0.189417 0 -0.0275225 0.205833 0 -0.0331283 0.19096 0 -0.0284288 0.203331 0 -0.0321288 0.193513 0 -0.0296013 0.200153 0 -0.0308933 0.196725 0 -0.0275898 0.208267 0 -0.0342668 0.190261 0 -0.028119 0.206763 0 -0.0336607 0.191818 0 -0.0290131 0.204256 0 -0.0326707 0.194391 0 -0.0301709 0.201068 0 -0.0314481 0.197624 0 -0.073113 0.108657 0 -0.08318 0.088425 0 -0.0740003 0.106947 0 -0.0823606 0.0901627 0 -0.0754618 0.104107 0 -0.0809839 0.0930359 0 -0.077287 0.100515 0 -0.0792161 0.0966508 0 -0.0752886 0.111757 0 -0.0842695 0.0916755 0 -0.0760992 0.11007 0 -0.0835564 0.0934155 0 -0.0774262 0.107266 0 -0.0823508 0.0962848 0 -0.0790696 0.103714 0 -0.0807898 0.099882 0 -0.0732466 0.108782 0 -0.083251 0.0885969 0 -0.0741298 0.107077 0 -0.0824381 0.0903317 0 -0.075584 0.104245 0 -0.0810716 0.0931997 0 -0.077399 0.100662 0 -0.0793161 0.0968068 0 -0.075028 0.111341 0 -0.0841402 0.0912854 0 -0.0758481 0.109655 0 -0.0834145 0.0930218 0 -0.0771917 0.106854 0 -0.0821886 0.0958857 0 -0.0788572 0.103305 0 -0.0806027 0.0994774 0 -0.0734803 0.109042 0 -0.0833721 0.0889217 0 -0.074356 0.107343 0 -0.0825706 0.0906529 0 -0.0757967 0.104522 0 -0.0812224 0.0935139 0 -0.0775932 0.100953 0 -0.0794886 0.0971106 0 -0.0746361 0.110719 0 -0.0839467 0.0906886 0 -0.0754705 0.109034 0 -0.0832019 0.0924205 0 -0.0768391 0.106234 0 -0.0819451 0.0952782 0 -0.0785381 0.102687 0 -0.0803218 0.0988639 0 -0.0738054 0.109467 0 -0.083536 0.0894056 0 -0.0746699 0.107774 0 -0.0827505 0.0911343 0 -0.0760909 0.104964 0 -0.081428 0.0939898 0 -0.0778606 0.101408 0 -0.079725 0.0975775 0 -0.0742043 0.11005 0 -0.0837338 0.0900207 0 -0.0750544 0.108362 0 -0.0829678 0.0917496 0 -0.0764505 0.10556 0 -0.0816769 0.0946039 0 -0.0781864 0.102011 0 -0.0800122 0.0981875 0 -0.0651127 0.132439 0 -0.0750285 0.112788 0 -0.0659799 0.130769 0 -0.0742125 0.114472 0 -0.0674102 0.128002 0 -0.0728461 0.117255 0 -0.0692005 0.124509 0 -0.0710991 0.120759 0 -0.0754037 0.153078 0 -0.0809538 0.129849 0 -0.0759104 0.151149 0 -0.0805162 0.131874 0 -0.0767368 0.14793 0 -0.0797762 0.135213 0 -0.0777551 0.143832 0 -0.0788163 0.139392 0 -0.0655005 0.132937 0 -0.0753249 0.113262 0 -0.0663623 0.131264 0 -0.074519 0.114948 0 -0.0677825 0.128494 0 -0.0731684 0.117735 0 -0.0695584 0.124997 0 -0.0714396 0.121243 0 -0.0737785 0.149273 0 -0.0801675 0.126815 0 -0.0743586 0.147399 0 -0.0796616 0.128766 0 -0.0753061 0.144276 0 -0.0788065 0.131985 0 -0.0764765 0.140308 0 -0.0776988 0.136018 0 -0.0662465 0.133984 0 -0.0758741 0.114224 0 -0.0670953 0.132304 0 -0.0750887 0.115917 0 -0.0684925 0.129522 0 -0.0737707 0.118717 0 -0.0702366 0.12601 0 -0.0720801 0.12224 0 -0.0714937 0.144114 0 -0.0790085 0.12267 0 -0.072171 0.142312 0 -0.0784096 0.124524 0 -0.0732798 0.139316 0 -0.0773986 0.127585 0 -0.074653 0.13552 0 -0.0760915 0.131426 0 -0.0674603 0.135971 0 -0.0766955 0.115957 0 -0.06828 0.134272 0 -0.0759477 0.117674 0 -0.0696271 0.131456 0 -0.0746903 0.120513 0 -0.0713049 0.127902 0 -0.0730733 0.124083 0 -0.0692414 0.139354 0 -0.0777753 0.118788 0 -0.0700046 0.137615 0 -0.0770899 0.120559 0 -0.0712566 0.134729 0 -0.075935 0.123483 0 -0.0728117 0.131082 0 -0.0744457 0.127157 0 -0.062115 0.129391 0 -0.072681 0.109487 0 -0.063016 0.127707 0 -0.0717888 0.111194 0 -0.0645115 0.124912 0 -0.0703044 0.114019 0 -0.0664 0.121376 0 -0.0684234 0.117574 0 -0.064936 0.132218 0 -0.0748927 0.112575 0 -0.0658056 0.130549 0 -0.0740721 0.114257 0 -0.0672403 0.127783 0 -0.0726986 0.11704 0 -0.069037 0.124292 0 -0.0709434 0.120543 0 -0.0622761 0.129459 0 -0.0728165 0.10961 0 -0.0631766 0.127779 0 -0.0719279 0.111312 0 -0.0646703 0.124991 0 -0.0704491 0.114129 0 -0.0665555 0.121465 0 -0.0685739 0.117674 0 -0.0645911 0.13179 0 -0.0746276 0.112158 0 -0.0654654 0.130123 0 -0.0737981 0.11384 0 -0.0669087 0.127359 0 -0.0724107 0.116622 0 -0.0687178 0.12387 0 -0.0706394 0.120123 0 -0.0625661 0.129637 0 -0.0730538 0.109866 0 -0.0634647 0.127963 0 -0.0721722 0.111561 0 -0.0649542 0.125185 0 -0.0707038 0.114366 0 -0.0668321 0.121672 0 -0.0688403 0.117896 0 -0.0640723 0.131164 0 -0.074229 0.111536 0 -0.0649536 0.129498 0 -0.073386 0.113218 0 -0.0664098 0.126735 0 -0.0719776 0.115999 0 -0.0682375 0.123247 0 -0.0701822 0.119501 0 -0.0629816 0.129984 0 -0.0733841 0.110287 0 -0.0638762 0.128315 0 -0.0725129 0.111976 0 -0.0653578 0.125546 0 -0.0710606 0.114769 0 -0.0672232 0.122046 0 -0.069215 0.118285 0 -0.0635024 0.130514 0 -0.0737897 0.110868 0 -0.0643909 0.128848 0 -0.0729319 0.112551 0 -0.0658609 0.126084 0 -0.0715004 0.115336 0 -0.0677088 0.122593 0 -0.0696785 0.118842 0 -0.0761847 0.130183 0 -0.0861858 0.104065 0 -0.0770251 0.127959 0 -0.0853305 0.106286 0 -0.0784257 0.12427 0 -0.0839115 0.10997 0 -0.0802042 0.119615 0 -0.0821206 0.114622 0 -0.0740203 0.121713 0 -0.0842426 0.0973155 0 -0.0748835 0.119634 0 -0.0833729 0.0993894 0 -0.0763205 0.116188 0 -0.0819279 0.10283 0 -0.078142 0.111839 0 -0.0801009 0.107175 0 -0.0759822 0.129427 0 -0.0859999 0.103459 0 -0.0768243 0.127215 0 -0.0851435 0.105667 0 -0.0782276 0.123548 0 -0.0837225 0.109329 0 -0.0800092 0.118919 0 -0.0819288 0.113955 0 -0.0741841 0.122395 0 -0.0843859 0.0978545 0 -0.0750451 0.120304 0 -0.0835175 0.0999406 0 -0.0764787 0.116838 0 -0.0820748 0.103401 0 -0.0782961 0.112463 0 -0.0802511 0.107772 0 -0.0756531 0.128187 0 -0.0856995 0.102465 0 -0.0764981 0.125996 0 -0.0848412 0.104652 0 -0.077906 0.122363 0 -0.0834167 0.108279 0 -0.0796932 0.117778 0 -0.0816183 0.112861 0 -0.074465 0.123544 0 -0.0846332 0.0987641 0 -0.0753225 0.121433 0 -0.0837669 0.100871 0 -0.0767504 0.117933 0 -0.0823281 0.104365 0 -0.0785613 0.113515 0 -0.0805099 0.108779 0 -0.0752504 0.126645 0 -0.0853347 0.101232 0 -0.0760992 0.12448 0 -0.0844739 0.103393 0 -0.0775133 0.120891 0 -0.0830449 0.106977 0 -0.0793078 0.116361 0 -0.0812403 0.111503 0 -0.0748351 0.125024 0 -0.0849621 0.0999397 0 -0.0756884 0.122887 0 -0.0840985 0.102072 0 -0.0771095 0.119344 0 -0.0826645 0.105609 0 -0.0789123 0.114872 0 -0.0808529 0.110077 0 -0.0637582 0.146552 0 -0.0735241 0.12239 0 -0.0645582 0.144511 0 -0.0726652 0.124461 0 -0.0658988 0.141119 0 -0.071251 0.12789 0 -0.0676155 0.136826 0 -0.0694846 0.132208 0 -0.0618469 0.137718 0 -0.0720094 0.115169 0 -0.0626849 0.135813 0 -0.0711219 0.117102 0 -0.0640873 0.132647 0 -0.0696578 0.120301 0 -0.065879 0.128641 0 -0.0678245 0.124331 0 -0.0635688 0.145735 0 -0.0733659 0.121715 0 -0.0643717 0.143706 0 -0.0725046 0.123773 0 -0.0657171 0.140334 0 -0.0710864 0.127182 0 -0.0674395 0.136066 0 -0.0693147 0.131475 0 -0.0619787 0.138396 0 -0.0721054 0.115713 0 -0.0628132 0.136479 0 -0.0712203 0.117657 0 -0.0642099 0.133295 0 -0.0697606 0.120876 0 -0.0659946 0.129265 0 -0.0679333 0.124929 0 -0.0632642 0.144404 0 -0.0731142 0.120616 0 -0.064072 0.142395 0 -0.072249 0.122655 0 -0.0654255 0.139056 0 -0.0708239 0.12603 0 -0.0671579 0.134829 0 -0.0690432 0.130282 0 -0.0622116 0.139554 0 -0.0722795 0.116648 0 -0.0630403 0.137618 0 -0.0713986 0.118612 0 -0.0644277 0.134403 0 -0.0699461 0.121861 0 -0.0662012 0.130333 0 -0.0681285 0.125955 0 -0.0628978 0.142768 0 -0.0728166 0.11927 0 -0.0637121 0.140783 0 -0.0719464 0.121284 0 -0.0650762 0.137485 0 -0.0705126 0.124618 0 -0.0668215 0.133309 0 -0.0687201 0.128818 0 -0.0625295 0.141073 0 -0.0725246 0.117883 0 -0.0633512 0.139114 0 -0.0716488 0.119871 0 -0.0647271 0.135858 0 -0.0702054 0.123161 0 -0.0664868 0.131738 0 -0.0684 0.127305 0 -0.0663349 0.157192 0 -0.0757783 0.131263 0 -0.0671055 0.155001 0 -0.0749442 0.133485 0 -0.0683979 0.151362 0 -0.0735726 0.137165 0 -0.0700549 0.146755 0 -0.071862 0.141798 0 -0.0638515 0.146952 0 -0.0736025 0.122721 0 -0.0646501 0.144905 0 -0.0727448 0.124798 0 -0.0659885 0.141504 0 -0.0713325 0.128236 0 -0.0677024 0.137198 0 -0.0695687 0.132567 0 -0.0661096 0.156282 0 -0.075575 0.130501 0 -0.0668822 0.154104 0 -0.0747392 0.132711 0 -0.0681779 0.150485 0 -0.0733646 0.136369 0 -0.069839 0.145904 0 -0.0716502 0.140976 0 -0.0640466 0.147782 0 -0.0737674 0.12341 0 -0.0648424 0.145723 0 -0.072912 0.125499 0 -0.0661762 0.142302 0 -0.0715036 0.128957 0 -0.0678845 0.137972 0 -0.069745 0.133313 0 -0.0657409 0.154788 0 -0.0752445 0.12925 0 -0.0665169 0.15263 0 -0.0744057 0.131439 0 -0.0678183 0.149046 0 -0.0730261 0.135063 0 -0.0694864 0.144508 0 -0.071305 0.139627 0 -0.0643777 0.149177 0 -0.0740501 0.124568 0 -0.065169 0.147098 0 -0.0731983 0.126678 0 -0.0664956 0.143644 0 -0.0717963 0.130169 0 -0.0681949 0.139271 0 -0.070046 0.134567 0 -0.0652847 0.152929 0 -0.0748398 0.127695 0 -0.0660654 0.150797 0 -0.073997 0.129858 0 -0.0673745 0.147255 0 -0.0726105 0.133439 0 -0.069052 0.142772 0 -0.0708806 0.137948 0 -0.0648083 0.150969 0 -0.0744224 0.12606 0 -0.0655944 0.148865 0 -0.0735751 0.128196 0 -0.0669122 0.145368 0 -0.0721808 0.13173 0 -0.0686007 0.140943 0 -0.0704406 0.136181 0 -0.11099 0.0243835 0 -0.112884 0.000490406 0 -0.111298 0.0223304 0 -0.112874 0.00251217 0 -0.11175 0.0189369 0 -0.112793 0.00586659 0 -0.112215 0.0146692 0 -0.112579 0.0101078 0 -0.109055 0.0228475 0 -0.110916 0.000459533 0 -0.109358 0.0209244 0 -0.110905 0.00235407 0 -0.109802 0.0177453 0 -0.110825 0.00549756 0 -0.110258 0.0137466 0 -0.110616 0.00947218 0 -0.110808 0.0242413 0 -0.112701 0.000487533 0 -0.111116 0.0222002 0 -0.11269 0.00249746 0 -0.111568 0.0188264 0 -0.112609 0.00583228 0 -0.112031 0.0145836 0 -0.112395 0.0100488 0 -0.109204 0.0229654 0 -0.111069 0.000461885 0 -0.109508 0.0210322 0 -0.111058 0.00236612 0 -0.109952 0.0178366 0 -0.110978 0.00552571 0 -0.110409 0.0138172 0 -0.110768 0.00952071 0 -0.110514 0.0240097 0 -0.112403 0.000482858 0 -0.110822 0.0219881 0 -0.112392 0.00247353 0 -0.111272 0.0186465 0 -0.112311 0.00577643 0 -0.111735 0.0144442 0 -0.112098 0.00995264 0 -0.109457 0.0231667 0 -0.111328 0.00046591 0 -0.109761 0.0212164 0 -0.111317 0.00238674 0 -0.110208 0.0179925 0 -0.111237 0.00557386 0 -0.110666 0.0139378 0 -0.111026 0.00960372 0 -0.110156 0.0237253 0 -0.11204 0.000477126 0 -0.110463 0.0217276 0 -0.112029 0.00244417 0 -0.110912 0.0184257 0 -0.111948 0.00570794 0 -0.111374 0.0142731 0 -0.111736 0.0098347 0 -0.109787 0.0234307 0 -0.111665 0.000471203 0 -0.110093 0.021458 0 -0.111654 0.00241385 0 -0.110541 0.0181971 0 -0.111573 0.00563715 0 -0.111001 0.0140961 0 -0.111362 0.00971278 0 -0.103335 0.0465621 0 -0.108828 0.0237237 0 -0.103921 0.0445928 0 -0.108487 0.0256475 0 -0.104847 0.0413398 0 -0.107866 0.0288436 0 -0.105932 0.0372532 0 -0.106988 0.0328918 0 -0.101951 0.0441848 0 -0.107255 0.022574 0 -0.102521 0.042327 0 -0.106929 0.0243997 0 -0.103419 0.0392559 0 -0.106333 0.0274309 0 -0.104469 0.0353935 0 -0.105488 0.0312663 0 -0.1032 0.0463233 0 -0.108683 0.0236053 0 -0.103785 0.0443647 0 -0.108343 0.0255192 0 -0.10471 0.0411293 0 -0.107724 0.0286989 0 -0.105793 0.0370644 0 -0.106847 0.032726 0 -0.102053 0.044345 0 -0.107382 0.0226481 0 -0.102625 0.0424791 0 -0.107053 0.0244804 0 -0.103527 0.0393949 0 -0.106454 0.0275228 0 -0.104582 0.0355165 0 -0.105605 0.0313729 0 -0.102985 0.0459403 0 -0.108449 0.0234162 0 -0.103568 0.0439989 0 -0.10811 0.0253143 0 -0.10449 0.0407918 0 -0.107493 0.0284675 0 -0.10557 0.0367622 0 -0.10662 0.0324607 0 -0.102229 0.0446302 0 -0.107593 0.022782 0 -0.102804 0.0427502 0 -0.107261 0.0246261 0 -0.103711 0.0396432 0 -0.106658 0.0276884 0 -0.104772 0.0357369 0 -0.105803 0.0315644 0 -0.102725 0.0454814 0 -0.108162 0.0231915 0 -0.103306 0.0435611 0 -0.107825 0.0250706 0 -0.104224 0.0403883 0 -0.107212 0.0281921 0 -0.105299 0.0364012 0 -0.106344 0.0321445 0 -0.102462 0.0450229 0 -0.107864 0.0229694 0 -0.10304 0.0431241 0 -0.10753 0.0248297 0 -0.103953 0.0399863 0 -0.106921 0.0279193 0 -0.105021 0.0360424 0 -0.106059 0.0318307 0 -0.105261 0.0498505 0 -0.110831 0.0253816 0 -0.105853 0.0477388 0 -0.110484 0.0274409 0 -0.106789 0.0442513 0 -0.109852 0.030863 0 -0.107888 0.0398714 0 -0.108959 0.0351987 0 -0.103402 0.0466799 0 -0.108899 0.0237823 0 -0.103988 0.0447053 0 -0.108557 0.0257109 0 -0.104914 0.0414437 0 -0.107936 0.0289151 0 -0.106 0.0373464 0 -0.107057 0.0329737 0 -0.105084 0.0495598 0 -0.110649 0.0252336 0 -0.105675 0.0474604 0 -0.110303 0.0272809 0 -0.106611 0.0439933 0 -0.109672 0.0306831 0 -0.107709 0.039639 0 -0.10878 0.0349935 0 -0.103541 0.0469264 0 -0.109047 0.0239051 0 -0.104128 0.0449409 0 -0.108705 0.0258439 0 -0.105056 0.0416614 0 -0.108083 0.0290651 0 -0.106143 0.0375417 0 -0.107202 0.0331454 0 -0.104797 0.0490853 0 -0.110356 0.0249925 0 -0.105388 0.0470062 0 -0.11001 0.0270203 0 -0.106323 0.0435724 0 -0.10938 0.0303899 0 -0.10742 0.03926 0 -0.108489 0.034659 0 -0.10378 0.0473457 0 -0.1093 0.0241148 0 -0.104368 0.0453417 0 -0.108957 0.0260708 0 -0.105298 0.0420319 0 -0.108332 0.0293209 0 -0.106388 0.0378744 0 -0.107449 0.033438 0 -0.10445 0.0485008 0 -0.109998 0.0246963 0 -0.10504 0.0464467 0 -0.109653 0.0267 0 -0.105974 0.0430543 0 -0.109025 0.0300296 0 -0.107069 0.0387936 0 -0.108136 0.0342477 0 -0.104095 0.047893 0 -0.10963 0.0243897 0 -0.104684 0.0458651 0 -0.109285 0.0263683 0 -0.105616 0.042516 0 -0.108659 0.029656 0 -0.106709 0.0383094 0 -0.107773 0.0338211 0 -0.0103344 0.254252 0 -0.0144756 0.240809 0 -0.0106603 0.253227 0 -0.0140948 0.242059 0 -0.0112111 0.251473 0 -0.0134757 0.244094 0 -0.0119251 0.249168 0 -0.0127154 0.246589 0 -0.0138157 0.256297 0 -0.0184024 0.244277 0 -0.0141991 0.255399 0 -0.0180062 0.245416 0 -0.0148382 0.253856 0 -0.0173511 0.247261 0 -0.0156505 0.251812 0 -0.016528 0.249509 0 -0.010579 0.254375 0 -0.0147332 0.241007 0 -0.0109077 0.253357 0 -0.0143531 0.242252 0 -0.0114623 0.251616 0 -0.0137343 0.244278 0 -0.0121801 0.249325 0 -0.012973 0.24676 0 -0.0134428 0.256068 0 -0.017962 0.243868 0 -0.0138187 0.255155 0 -0.0175694 0.245022 0 -0.0144459 0.253586 0 -0.0169213 0.246892 0 -0.0152443 0.25151 0 -0.0161087 0.249171 0 -0.0109964 0.254599 0 -0.0151808 0.241369 0 -0.0113303 0.253594 0 -0.014801 0.242604 0 -0.0118926 0.251874 0 -0.0141815 0.244612 0 -0.0126183 0.249609 0 -0.0134171 0.247072 0 -0.0128655 0.255712 0 -0.0172868 0.243243 0 -0.0132302 0.254776 0 -0.0168991 0.244419 0 -0.0138398 0.253169 0 -0.0162608 0.246326 0 -0.0146179 0.251044 0 -0.0154631 0.248653 0 -0.0115531 0.254917 0 -0.0157922 0.241891 0 -0.0118951 0.253931 0 -0.0154115 0.243111 0 -0.0124694 0.252242 0 -0.0147889 0.245093 0 -0.0132081 0.250016 0 -0.0140176 0.247518 0 -0.0122008 0.255305 0 -0.0165216 0.242542 0 -0.0125534 0.254343 0 -0.0161383 0.243742 0 -0.0131441 0.252693 0 -0.0155092 0.245689 0 -0.0139009 0.250515 0 -0.0147265 0.248067 0 -0.00940405 0.265175 0 -0.0138165 0.256835 0 -0.00977132 0.264606 0 -0.0134317 0.257687 0 -0.0103834 0.263604 0 -0.0127978 0.25904 0 -0.0111618 0.262238 0 -0.0120045 0.260645 0 -0.0155118 0.265412 0 -0.0230843 0.260249 0 -0.016153 0.265056 0 -0.022436 0.260774 0 -0.0172175 0.264433 0 -0.0213628 0.26161 0 -0.0185637 0.263586 0 -0.0200107 0.2626 0 -0.00969011 0.265241 0 -0.0142189 0.257073 0 -0.010068 0.264684 0 -0.0138252 0.257908 0 -0.0106975 0.263705 0 -0.0131759 0.259235 0 -0.0114975 0.262367 0 -0.0123626 0.260807 0 -0.0146358 0.265479 0 -0.0217027 0.259908 0 -0.0152342 0.265098 0 -0.0210979 0.260477 0 -0.0162276 0.264427 0 -0.0200965 0.261381 0 -0.0174841 0.263515 0 -0.0188347 0.262452 0 -0.0102142 0.265348 0 -0.0149671 0.25749 0 -0.0106124 0.264813 0 -0.0145558 0.258294 0 -0.0112751 0.263872 0 -0.0138767 0.259572 0 -0.0121163 0.262587 0 -0.0130245 0.261086 0 -0.0133768 0.265539 0 -0.0197354 0.259363 0 -0.0139149 0.265118 0 -0.0191911 0.259995 0 -0.0148084 0.264378 0 -0.0182898 0.261 0 -0.0159388 0.263368 0 -0.0171542 0.262189 0 -0.011007 0.265462 0 -0.0161272 0.258055 0 -0.0114378 0.264959 0 -0.0156864 0.258815 0 -0.0121543 0.264073 0 -0.0149575 0.260021 0 -0.0130624 0.262863 0 -0.014041 0.261448 0 -0.0120873 0.265537 0 -0.0177518 0.25871 0 -0.0125657 0.265073 0 -0.017266 0.25941 0 -0.0133604 0.264257 0 -0.0164619 0.260522 0 -0.0143667 0.263141 0 -0.0154494 0.261838 0 -0.00668472 0.264594 0 -0.0101779 0.254741 0 -0.00696371 0.263907 0 -0.00985888 0.255727 0 -0.00743257 0.262704 0 -0.00934012 0.257304 0 -0.00803684 0.261073 0 -0.00870212 0.259188 0 -0.00927083 0.265143 0 -0.0136302 0.256724 0 -0.00963323 0.264568 0 -0.0132494 0.257583 0 -0.0102373 0.263557 0 -0.0126225 0.258948 0 -0.0110059 0.262177 0 -0.0118384 0.260568 0 -0.00687704 0.264619 0 -0.010421 0.25486 0 -0.0071614 0.263939 0 -0.0100989 0.255839 0 -0.00763882 0.26275 0 -0.00957444 0.257403 0 -0.00825316 0.261136 0 -0.00892827 0.259269 0 -0.00900559 0.265079 0 -0.013261 0.256502 0 -0.00935843 0.264492 0 -0.0128882 0.257376 0 -0.00994684 0.263461 0 -0.0122748 0.258766 0 -0.0106962 0.262054 0 -0.0115086 0.260415 0 -0.00720078 0.26467 0 -0.0108358 0.255077 0 -0.0074945 0.264005 0 -0.0105078 0.256042 0 -0.00798687 0.262838 0 -0.0099727 0.257582 0 -0.00861899 0.261254 0 -0.00931168 0.259419 0 -0.00859101 0.264978 0 -0.0126894 0.256157 0 -0.00892928 0.264373 0 -0.0123284 0.257054 0 -0.00949392 0.26331 0 -0.0117354 0.258481 0 -0.010214 0.261862 0 -0.0109961 0.260176 0 -0.00762421 0.264753 0 -0.0113884 0.255386 0 -0.00793075 0.264106 0 -0.0110516 0.256331 0 -0.00844376 0.26297 0 -0.0105009 0.257839 0 -0.00910075 0.261427 0 -0.00981841 0.259635 0 -0.00810618 0.264861 0 -0.0120307 0.255762 0 -0.00842812 0.264235 0 -0.0116825 0.256684 0 -0.00896614 0.263136 0 -0.0111117 0.258153 0 -0.00965355 0.261639 0 -0.0104022 0.259899 0 -0.00858039 0.269945 0 -0.0142724 0.258022 0 -0.00900178 0.268984 0 -0.0137258 0.259079 0 -0.00972679 0.267363 0 -0.0128445 0.260818 0 -0.0106885 0.265274 0 -0.0117771 0.262987 0 -0.00760156 0.262516 0 -0.0127983 0.249767 0 -0.0079826 0.261496 0 -0.0122949 0.250905 0 -0.00863969 0.259774 0 -0.0114852 0.252776 0 -0.00951413 0.257547 0 -0.0105076 0.255102 0 -0.0084854 0.269252 0 -0.0141362 0.257256 0 -0.00890336 0.268285 0 -0.0135931 0.258319 0 -0.00962264 0.266655 0 -0.0127178 0.26007 0 -0.0105771 0.264554 0 -0.0116577 0.262253 0 -0.00767075 0.263084 0 -0.0129104 0.250401 0 -0.00805521 0.262068 0 -0.0124032 0.251533 0 -0.00871809 0.260354 0 -0.0115872 0.253393 0 -0.00960002 0.258139 0 -0.0106017 0.255706 0 -0.00833176 0.268126 0 -0.0139138 0.25601 0 -0.00874402 0.26715 0 -0.0133767 0.257085 0 -0.00945376 0.265506 0 -0.0125111 0.258855 0 -0.010396 0.263384 0 -0.0114635 0.26106 0 -0.00779223 0.264053 0 -0.0131028 0.251484 0 -0.00818236 0.263045 0 -0.0125893 0.252604 0 -0.00885485 0.261345 0 -0.011763 0.254445 0 -0.00974922 0.259148 0 -0.0107645 0.256737 0 -0.00814553 0.266747 0 -0.01364 0.254482 0 -0.00855059 0.265761 0 -0.0131104 0.255572 0 -0.00924823 0.264098 0 -0.0122575 0.257365 0 -0.010175 0.261952 0 -0.0112256 0.259599 0 -0.00795671 0.265325 0 -0.0133563 0.252901 0 -0.00835403 0.264327 0 -0.012835 0.254007 0 -0.00903866 0.262645 0 -0.0119958 0.255825 0 -0.00994869 0.260472 0 -0.0109811 0.258089 0 -0.00383516 0.273212 0 -0.00738921 0.262736 0 -0.00408133 0.27244 0 -0.00702716 0.263734 0 -0.00451145 0.271105 0 -0.00645253 0.26535 0 -0.0050946 0.269329 0 -0.00577161 0.267317 0 -0.00374796 0.268099 0 -0.00696155 0.2573 0 -0.00397276 0.267311 0 -0.0066355 0.258339 0 -0.0043641 0.265946 0 -0.00611791 0.260018 0 -0.00489254 0.264124 0 -0.00550405 0.262052 0 -0.00380595 0.272703 0 -0.00732663 0.26219 0 -0.00404977 0.271929 0 -0.00696787 0.263193 0 -0.00447578 0.27059 0 -0.00639853 0.264816 0 -0.00505336 0.268808 0 -0.00572397 0.26679 0 -0.00372891 0.268456 0 -0.00696573 0.257673 0 -0.00395486 0.267668 0 -0.00663692 0.25871 0 -0.00434846 0.266304 0 -0.00611506 0.260384 0 -0.00488037 0.264483 0 -0.00549637 0.262415 0 -0.0037647 0.271888 0 -0.00723133 0.261317 0 -0.00400479 0.27111 0 -0.00687797 0.262326 0 -0.00442422 0.269765 0 -0.00631727 0.26396 0 -0.00499284 0.267974 0 -0.00565306 0.265945 0 -0.00371001 0.269081 0 -0.00698823 0.258331 0 -0.00393819 0.268294 0 -0.0066547 0.259363 0 -0.00433605 0.266933 0 -0.00612545 0.26103 0 -0.00487432 0.265116 0 -0.00549829 0.263053 0 -0.00372702 0.270911 0 -0.00712819 0.260273 0 -0.00396273 0.270129 0 -0.00678149 0.261291 0 -0.00437438 0.268778 0 -0.00623144 0.262936 0 -0.00493227 0.266977 0 -0.00557991 0.264935 0 -0.00370701 0.26993 0 -0.00704215 0.25923 0 -0.00393854 0.269145 0 -0.00670239 0.260255 0 -0.00434262 0.267788 0 -0.00616335 0.261912 0 -0.00488986 0.265978 0 -0.0055248 0.263925 0 -0.00438814 0.280355 0 -0.00838027 0.270407 0 -0.00466727 0.279616 0 -0.00797707 0.271348 0 -0.005154 0.278341 0 -0.00733562 0.272875 0 -0.00581193 0.276649 0 -0.006573 0.274738 0 -0.0038504 0.273464 0 -0.00742083 0.263005 0 -0.00409774 0.272692 0 -0.00705718 0.264002 0 -0.00452989 0.271359 0 -0.00647997 0.265615 0 -0.00511579 0.269586 0 -0.00579594 0.267578 0 -0.00433216 0.279712 0 -0.00828693 0.269716 0 -0.00460837 0.278969 0 -0.00788712 0.270662 0 -0.00509013 0.277689 0 -0.00725122 0.272197 0 -0.00574158 0.275989 0 -0.00649548 0.274069 0 -0.00388389 0.273991 0 -0.00748839 0.263571 0 -0.00413367 0.273222 0 -0.00712143 0.264563 0 -0.00457009 0.271893 0 -0.00653887 0.266169 0 -0.0051617 0.270125 0 -0.00584839 0.268125 0 -0.00424274 0.278667 0 -0.00813604 0.268594 0 -0.00451418 0.27792 0 -0.00774186 0.269548 0 -0.00498781 0.27663 0 -0.00711515 0.271096 0 -0.00562864 0.274918 0 -0.00637074 0.272983 0 -0.00394526 0.27489 0 -0.00760715 0.264536 0 -0.00419923 0.274125 0 -0.00723466 0.265521 0 -0.00464288 0.272804 0 -0.00664318 0.267116 0 -0.00524417 0.271046 0 -0.00594188 0.269058 0 -0.00413664 0.277389 0 -0.00795329 0.267221 0 -0.0044022 0.276635 0 -0.00756619 0.268185 0 -0.00486578 0.275335 0 -0.00695103 0.269749 0 -0.00549343 0.273607 0 -0.00622082 0.271655 0 -0.00403239 0.27607 0 -0.00776818 0.265804 0 -0.00429184 0.27531 0 -0.00738866 0.266779 0 -0.00474494 0.273999 0 -0.00678581 0.268359 0 -0.00535878 0.272255 0 -0.00607066 0.270284 0 -0.0403178 0.219887 0 -0.049675 0.209576 0 -0.0411095 0.21897 0 -0.0488754 0.210416 0 -0.0424248 0.217465 0 -0.0475503 0.211824 0 -0.0440895 0.215596 0 -0.0458791 0.213627 0 -0.0374491 0.207554 0 -0.0464924 0.195825 0 -0.038212 0.206514 0 -0.0457178 0.196783 0 -0.0394805 0.204806 0 -0.0444347 0.198386 0 -0.0410877 0.202682 0 -0.0428176 0.200441 0 -0.040069 0.218782 0 -0.0494002 0.208358 0 -0.0408584 0.217854 0 -0.0486028 0.209207 0 -0.0421699 0.216334 0 -0.0472812 0.21063 0 -0.0438298 0.214444 0 -0.0456145 0.212454 0 -0.0376872 0.208544 0 -0.0467583 0.196944 0 -0.0384527 0.207515 0 -0.0459816 0.197891 0 -0.0397255 0.205826 0 -0.0446948 0.199477 0 -0.0413378 0.203724 0 -0.0430729 0.201508 0 -0.0396579 0.216971 0 -0.0489458 0.206356 0 -0.0404433 0.216026 0 -0.0481519 0.207221 0 -0.0417484 0.214478 0 -0.0468361 0.20867 0 -0.0434004 0.212554 0 -0.0451769 0.210527 0 -0.0380851 0.210212 0 -0.0472017 0.198822 0 -0.0388548 0.209201 0 -0.0464214 0.199751 0 -0.0401344 0.207541 0 -0.0451286 0.201308 0 -0.0417551 0.205478 0 -0.0434989 0.203302 0 -0.0391417 0.214723 0 -0.0483746 0.203863 0 -0.0399221 0.213757 0 -0.047585 0.204748 0 -0.041219 0.212174 0 -0.0462767 0.206231 0 -0.042861 0.210206 0 -0.044627 0.208131 0 -0.0385924 0.212363 0 -0.0477655 0.201232 0 -0.0393673 0.211374 0 -0.0469807 0.202139 0 -0.0406553 0.209751 0 -0.0456804 0.20366 0 -0.0422864 0.207734 0 -0.044041 0.205608 0 -0.0282795 0.220435 0 -0.0369651 0.207588 0 -0.0289969 0.219305 0 -0.0362069 0.208646 0 -0.0301966 0.217447 0 -0.0349563 0.210414 0 -0.0317282 0.215128 0 -0.0333904 0.212672 0 -0.0261693 0.211651 0 -0.0344101 0.197227 0 -0.0268451 0.210393 0 -0.0336861 0.198422 0 -0.0279773 0.208318 0 -0.0324937 0.200418 0 -0.0294265 0.20572 0 -0.0310038 0.202962 0 -0.0280797 0.219597 0 -0.0367308 0.206623 0 -0.028794 0.218457 0 -0.0359752 0.207691 0 -0.0299885 0.216581 0 -0.0347292 0.209477 0 -0.0315136 0.214239 0 -0.0331692 0.211759 0 -0.0263227 0.212299 0 -0.0346054 0.198016 0 -0.0270025 0.211052 0 -0.0338782 0.199199 0 -0.0281411 0.208997 0 -0.0326804 0.201174 0 -0.0295981 0.206424 0 -0.0311833 0.203692 0 -0.0277545 0.218241 0 -0.0363471 0.205052 0 -0.0284633 0.217084 0 -0.0355961 0.206139 0 -0.029649 0.215178 0 -0.0343578 0.207956 0 -0.0311633 0.212798 0 -0.0328078 0.210277 0 -0.0265903 0.213419 0 -0.0349404 0.199366 0 -0.0272763 0.21219 0 -0.0342081 0.200528 0 -0.0284252 0.210166 0 -0.0330014 0.20247 0 -0.0298947 0.207634 0 -0.0314929 0.204947 0 -0.0273567 0.216593 0 -0.0358734 0.203128 0 -0.0280584 0.215413 0 -0.0351282 0.204239 0 -0.0292326 0.213469 0 -0.0338999 0.206096 0 -0.0307329 0.21104 0 -0.0323628 0.208466 0 -0.0269491 0.214908 0 -0.0353813 0.201141 0 -0.0276429 0.213703 0 -0.0346426 0.202279 0 -0.0288042 0.211718 0 -0.0334253 0.204179 0 -0.0302889 0.209236 0 -0.0319027 0.206604 0 -0.0308557 0.231698 0 -0.0399341 0.220336 0 -0.0316094 0.230693 0 -0.0391451 0.221265 0 -0.0328681 0.229042 0 -0.0378425 0.222821 0 -0.0344719 0.226986 0 -0.036209 0.224814 0 -0.0283772 0.220846 0 -0.0370795 0.208062 0 -0.0290962 0.219722 0 -0.03632 0.209114 0 -0.0302985 0.217873 0 -0.0350672 0.210873 0 -0.0318331 0.215564 0 -0.0334984 0.21312 0 -0.0306385 0.230714 0 -0.0396865 0.219235 0 -0.0313895 0.229699 0 -0.0388999 0.220174 0 -0.0326436 0.228032 0 -0.0376014 0.221747 0 -0.0342418 0.225954 0 -0.0359731 0.22376 0 -0.0285801 0.221705 0 -0.0373164 0.209047 0 -0.0293023 0.220591 0 -0.0365543 0.210088 0 -0.0305097 0.218759 0 -0.035297 0.211829 0 -0.0320505 0.216473 0 -0.0337224 0.214054 0 -0.0302802 0.229105 0 -0.0392773 0.217432 0 -0.0310265 0.228073 0 -0.0384947 0.218388 0 -0.032273 0.226379 0 -0.037203 0.219988 0 -0.0338619 0.224267 0 -0.0355835 0.222036 0 -0.0289206 0.223157 0 -0.0377123 0.210706 0 -0.0296479 0.22206 0 -0.0369458 0.211729 0 -0.0308636 0.220257 0 -0.0356813 0.21344 0 -0.0324147 0.218008 0 -0.0340971 0.215628 0 -0.0298319 0.227116 0 -0.0387636 0.215195 0 -0.0305722 0.226064 0 -0.0379862 0.216172 0 -0.0318089 0.224335 0 -0.0367031 0.217808 0 -0.0333857 0.222179 0 -0.0350949 0.2199 0 -0.0293569 0.225039 0 -0.038217 0.212846 0 -0.0300906 0.223964 0 -0.0374452 0.213847 0 -0.0313165 0.222197 0 -0.0361716 0.215521 0 -0.0328802 0.219993 0 -0.0345757 0.217662 0 -0.0926273 0.0661018 0 -0.0992278 0.0451043 0 -0.0932786 0.0643269 0 -0.0987598 0.046907 0 -0.0943234 0.06138 0 -0.0979436 0.0498886 0 -0.0955786 0.0576516 0 -0.0968432 0.0536405 0 -0.0922474 0.0690006 0 -0.0975133 0.0472577 0 -0.0927797 0.0671756 0 -0.0971503 0.0491355 0 -0.0936282 0.0641394 0 -0.096513 0.0522375 0 -0.0946384 0.060288 0 -0.0956457 0.0561334 0 -0.0926032 0.0662832 0 -0.0991089 0.0452544 0 -0.0932463 0.064507 0 -0.0986486 0.0470612 0 -0.0942776 0.0615574 0 -0.0978454 0.0500489 0 -0.0955156 0.0578246 0 -0.0967619 0.0538075 0 -0.092287 0.0686849 0 -0.0976963 0.0470411 0 -0.0928324 0.0668675 0 -0.0973224 0.0489099 0 -0.0937025 0.0638444 0 -0.0966663 0.051997 0 -0.0947394 0.0600102 0 -0.0957743 0.0558746 0 -0.0925594 0.0666095 0 -0.0989043 0.0455169 0 -0.0931887 0.0648301 0 -0.0984571 0.0473312 0 -0.0941968 0.0618743 0 -0.097676 0.0503306 0 -0.0954056 0.0581318 0 -0.0966209 0.0541025 0 -0.09235 0.0681912 0 -0.0979806 0.0466957 0 -0.0929157 0.0663849 0 -0.0975897 0.0485507 0 -0.0938189 0.063381 0 -0.0969045 0.0516153 0 -0.0948967 0.0595722 0 -0.0959743 0.0554652 0 -0.0924979 0.067068 0 -0.0986297 0.0458725 0 -0.0931085 0.0652825 0 -0.0981995 0.047698 0 -0.0940857 0.0623154 0 -0.0974474 0.0507149 0 -0.0952556 0.0585566 0 -0.0964298 0.0545074 0 -0.0924246 0.0676195 0 -0.0983092 0.046284 0 -0.0930132 0.0658247 0 -0.0978985 0.0481236 0 -0.0939541 0.0628408 0 -0.0971796 0.0511633 0 -0.0950787 0.059059 0 -0.0962052 0.0549829 0 -0.0846749 0.0910251 0 -0.0919673 0.0700445 0 -0.0853647 0.0892727 0 -0.0914196 0.0718651 0 -0.0864816 0.0863538 0 -0.09048 0.074869 0 -0.0878425 0.0826447 0 -0.0892391 0.0786356 0 -0.085897 0.103505 0 -0.0893992 0.0784716 0 -0.0862357 0.101392 0 -0.0891413 0.0806194 0 -0.0867806 0.0978808 0 -0.0886973 0.084174 0 -0.0874386 0.0934348 0 -0.0881076 0.0886495 0 -0.0848117 0.0914536 0 -0.0919308 0.0703884 0 -0.0854872 0.0896957 0 -0.0913978 0.0722176 0 -0.0865799 0.0867667 0 -0.0904827 0.0752353 0 -0.0879099 0.0830437 0 -0.0892731 0.0790183 0 -0.0858902 0.101428 0 -0.089932 0.0771593 0 -0.0862822 0.0993863 0 -0.0896356 0.0792484 0 -0.0869123 0.0959913 0 -0.0891246 0.0827032 0 -0.0876727 0.0916869 0 -0.0884449 0.0870479 0 -0.0850494 0.0922814 0 -0.0918454 0.0710285 0 -0.0856976 0.0905097 0 -0.0913393 0.0728755 0 -0.0867447 0.0875569 0 -0.0904695 0.0759221 0 -0.0880167 0.0838021 0 -0.0893175 0.0797405 0 -0.085814 0.0985491 0 -0.0906352 0.0753137 0 -0.0862816 0.0966034 0 -0.090282 0.0773228 0 -0.0870334 0.0933638 0 -0.0896729 0.0806416 0 -0.0879407 0.0892502 0 -0.0888622 0.0848087 0 -0.0853464 0.0936659 0 -0.0916472 0.0720376 0 -0.0859513 0.0918637 0 -0.0911813 0.0739174 0 -0.0869269 0.0888595 0 -0.0903791 0.0770184 0 -0.0881089 0.0850386 0 -0.0893144 0.0809049 0 -0.0856258 0.09578 0 -0.0912504 0.0734905 0 -0.0861692 0.0939201 0 -0.090837 0.0754248 0 -0.087044 0.0908207 0 -0.0901245 0.0786169 0 -0.0881014 0.0868804 0 -0.089177 0.0826199 0 -0.0835744 0.0875806 0 -0.0923056 0.0669624 0 -0.08438 0.0858388 0 -0.0916319 0.0687335 0 -0.0856929 0.0829464 0 -0.0904835 0.0716624 0 -0.087307 0.0792861 0 -0.0889808 0.0753474 0 -0.0846116 0.0908284 0 -0.0919837 0.0698845 0 -0.085308 0.0890784 0 -0.0914292 0.0717012 0 -0.086436 0.0861637 0 -0.0904782 0.0746991 0 -0.0878111 0.0824605 0 -0.089223 0.0784585 0 -0.0836422 0.0877537 0 -0.0922854 0.0671443 0 -0.0844411 0.0860143 0 -0.0916197 0.0689162 0 -0.0857424 0.0831251 0 -0.0904846 0.0718458 0 -0.0873413 0.0794677 0 -0.0889981 0.0755307 0 -0.0844886 0.0904403 0 -0.0920168 0.0695651 0 -0.0851978 0.0886944 0 -0.091449 0.0713746 0 -0.0863475 0.0857874 0 -0.0904758 0.0743609 0 -0.0877503 0.0820953 0 -0.0891924 0.0781066 0 -0.0837577 0.0880801 0 -0.0922485 0.067472 0 -0.0845447 0.0863435 0 -0.0915966 0.0692464 0 -0.0858257 0.0834578 0 -0.0904841 0.0721791 0 -0.0873982 0.0798029 0 -0.0890257 0.075866 0 -0.0843043 0.0898459 0 -0.09207 0.0690662 0 -0.085033 0.0881053 0 -0.0914818 0.0708651 0 -0.0862155 0.0852085 0 -0.0904746 0.0738347 0 -0.0876605 0.0815314 0 -0.0891483 0.0775611 0 -0.0839137 0.0885649 0 -0.092196 0.0679333 0 -0.0846842 0.0868298 0 -0.0915627 0.0697129 0 -0.0859373 0.083945 0 -0.0904809 0.0726531 0 -0.0874734 0.0802886 0 -0.0890607 0.0763471 0 -0.0841018 0.0891797 0 -0.0921334 0.0684891 0 -0.0848522 0.0874433 0 -0.0915221 0.0702772 0 -0.0860711 0.0845548 0 -0.0904767 0.0732302 0 -0.0875631 0.0808908 0 -0.0891022 0.0769378 0 -0.0935207 0.0670356 0 -0.101619 0.0450114 0 -0.0942916 0.0651421 0 -0.101021 0.0468702 0 -0.09554 0.0620113 0 -0.0999883 0.0499577 0 -0.0970597 0.0580735 0 -0.0986145 0.0538662 0 -0.0929063 0.0651166 0 -0.100545 0.0440229 0 -0.0936435 0.0633146 0 -0.099989 0.0458152 0 -0.094833 0.0603307 0 -0.0990262 0.0487871 0 -0.0962737 0.0565694 0 -0.097739 0.0525403 0 -0.0934465 0.0667831 0 -0.101521 0.0448615 0 -0.0942158 0.0648991 0 -0.100926 0.0467124 0 -0.0954615 0.0617838 0 -0.0998968 0.0497865 0 -0.0969774 0.057865 0 -0.0985276 0.0536774 0 -0.0929391 0.0651754 0 -0.100636 0.0440311 0 -0.0936809 0.0633678 0 -0.100075 0.0458265 0 -0.0948783 0.0603751 0 -0.0991038 0.0488039 0 -0.0963292 0.0566037 0 -0.0978058 0.0525649 0 -0.0933334 0.0663952 0 -0.101364 0.0446362 0 -0.0940998 0.0645264 0 -0.100773 0.0464747 0 -0.0953402 0.0614359 0 -0.099751 0.0495277 0 -0.0968487 0.0575473 0 -0.0983903 0.0533908 0 -0.0930006 0.0653218 0 -0.100785 0.0440799 0 -0.0937491 0.0635038 0 -0.100217 0.0458815 0 -0.0949581 0.0604947 0 -0.0992322 0.04887 0 -0.0964244 0.0567042 0 -0.097918 0.0526467 0 -0.0932073 0.0659657 0 -0.101173 0.0443964 0 -0.0939692 0.0641151 0 -0.100587 0.0462209 0 -0.0952015 0.0610538 0 -0.0995758 0.0492496 0 -0.0966989 0.0572008 0 -0.0982277 0.0530806 0 -0.0930917 0.065588 0 -0.100971 0.0442003 0 -0.0938473 0.0637552 0 -0.100394 0.0460117 0 -0.0950688 0.0607225 0 -0.0993957 0.0490178 0 -0.0965515 0.0569039 0 -0.0980637 0.0528184 0 -0.0829557 0.0871447 0 -0.0925297 0.0659701 0 -0.0838213 0.0853384 0 -0.0917743 0.0677708 0 -0.0852391 0.0823458 0 -0.090494 0.0707564 0 -0.086995 0.0785714 0 -0.0888312 0.074526 0 -0.0835418 0.0875029 0 -0.0923148 0.0668784 0 -0.0843505 0.0857598 0 -0.0916372 0.0686492 0 -0.0856689 0.0828655 0 -0.0904825 0.071578 0 -0.0872902 0.0792034 0 -0.088972 0.0752635 0 -0.0829775 0.0870422 0 -0.0925038 0.0659433 0 -0.0838401 0.0852435 0 -0.0917534 0.0677388 0 -0.0852524 0.082263 0 -0.090481 0.0707151 0 -0.0870005 0.0785031 0 -0.0888275 0.0744722 0 -0.0834748 0.087356 0 -0.0923326 0.0667142 0 -0.08429 0.0856099 0 -0.0916471 0.0684849 0 -0.0856193 0.0827112 0 -0.0904796 0.0714142 0 -0.0872552 0.0790446 0 -0.0889533 0.0751014 0 -0.0830294 0.0869332 0 -0.0924666 0.0659482 0 -0.0838861 0.0851462 0 -0.0917253 0.0677361 0 -0.0852879 0.0821844 0 -0.0904674 0.070699 0 -0.0870215 0.0784466 0 -0.0888313 0.0744376 0 -0.0833666 0.0871539 0 -0.0923595 0.066471 0 -0.0841918 0.0854017 0 -0.0916613 0.0682426 0 -0.0855385 0.082494 0 -0.0904732 0.0711745 0 -0.0871974 0.0788179 0 -0.0889216 0.0748669 0 -0.0831189 0.0868982 0 -0.0924276 0.0660361 0 -0.0839668 0.0851243 0 -0.091699 0.0678164 0 -0.0853531 0.0821834 0 -0.0904617 0.0707655 0 -0.0870653 0.0784699 0 -0.0888504 0.0744845 0 -0.0832388 0.0869784 0 -0.0923915 0.0662219 0 -0.0840757 0.0852168 0 -0.0916782 0.0679966 0 -0.0854426 0.0822947 0 -0.0904653 0.0709349 0 -0.0871287 0.0786029 0 -0.0888836 0.0746377 0 -0.0832985 0.0903977 0 -0.0931421 0.0679559 0 -0.0841753 0.0884743 0 -0.0923532 0.0698541 0 -0.085617 0.0852909 0 -0.0910211 0.0730059 0 -0.0874119 0.0812819 0 -0.0893005 0.0769935 0 -0.082948 0.0872048 0 -0.0925434 0.0659916 0 -0.0838148 0.0853947 0 -0.0917858 0.067795 0 -0.0852351 0.082396 0 -0.0905018 0.0707853 0 -0.0869944 0.0786142 0 -0.0888348 0.0745614 0 -0.0832311 0.0900192 0 -0.0930685 0.0676986 0 -0.0841082 0.0881065 0 -0.0922809 0.0695871 0 -0.0855501 0.0849409 0 -0.0909507 0.0727225 0 -0.0873446 0.0809541 0 -0.0892319 0.0766889 0 -0.0829379 0.0873498 0 -0.0925741 0.0660532 0 -0.0838072 0.0855315 0 -0.091812 0.0678626 0 -0.085232 0.0825197 0 -0.0905212 0.0708633 0 -0.0869978 0.0787222 0 -0.088846 0.0746533 0 -0.083134 0.0894278 0 -0.0929567 0.0673032 0 -0.0840113 0.0875327 0 -0.0921717 0.069176 0 -0.0854529 0.0843959 0 -0.0908453 0.0722851 0 -0.0872459 0.0804449 0 -0.0891303 0.0762173 0 -0.0829386 0.08765 0 -0.0926324 0.0662048 0 -0.0838111 0.0858175 0 -0.0918639 0.0680251 0 -0.0852419 0.0827827 0 -0.0905629 0.0710446 0 -0.0870167 0.0789572 0 -0.0888761 0.0748598 0 -0.083038 0.0887527 0 -0.0928328 0.0668648 0 -0.0839148 0.0868791 0 -0.0920519 0.068719 0 -0.0853548 0.0837775 0 -0.0907318 0.0717964 0 -0.0871443 0.0798699 0 -0.0890233 0.0756876 0 -0.0829693 0.0881282 0 -0.09272 0.0664783 0 -0.0838446 0.0862765 0 -0.0919449 0.0683141 0 -0.0852809 0.0832106 0 -0.0906334 0.0713602 0 -0.0870643 0.0793469 0 -0.0889347 0.0752103 0 -0.107344 0.0216561 0 -0.10911 0.000436217 0 -0.107632 0.0198371 0 -0.1091 0.0022345 0 -0.108055 0.0168282 0 -0.109024 0.00521768 0 -0.108487 0.0130404 0 -0.108826 0.00898807 0 -0.105775 0.0213103 0 -0.107327 0.000430526 0 -0.106034 0.0195276 0 -0.107322 0.00220505 0 -0.10641 0.016575 0 -0.10726 0.00514751 0 -0.106793 0.0128522 0 -0.10709 0.0088634 0 -0.107218 0.0215928 0 -0.108972 0.000435033 0 -0.107504 0.0197796 0 -0.108961 0.00222841 0 -0.107924 0.0167801 0 -0.108887 0.00520335 0 -0.108354 0.0130036 0 -0.10869 0.00896311 0 -0.105925 0.0213012 0 -0.107502 0.000430229 0 -0.106187 0.0195186 0 -0.107495 0.00220355 0 -0.106568 0.0165664 0 -0.107432 0.00514412 0 -0.106957 0.0128448 0 -0.107259 0.00885788 0 -0.107009 0.0214999 0 -0.10874 0.000433325 0 -0.107292 0.0196955 0 -0.10873 0.00221962 0 -0.107707 0.0167098 0 -0.108657 0.00518264 0 -0.108132 0.0129502 0 -0.108464 0.00892694 0 -0.106163 0.0213038 0 -0.107778 0.000430089 0 -0.10643 0.0195198 0 -0.107771 0.00220288 0 -0.10682 0.016566 0 -0.107705 0.00514273 0 -0.107217 0.0128433 0 -0.107527 0.00885604 0 -0.106743 0.021406 0 -0.108441 0.000431655 0 -0.107021 0.0196107 0 -0.108432 0.00221101 0 -0.107429 0.0166395 0 -0.108361 0.00516227 0 -0.107846 0.0128971 0 -0.108172 0.00889119 0 -0.106449 0.0213367 0 -0.108107 0.000430509 0 -0.106722 0.0195486 0 -0.108099 0.00220508 0 -0.107121 0.0165886 0 -0.10803 0.00514815 0 -0.107529 0.0128592 0 -0.107846 0.00886609 0 -0.100761 0.0431557 0 -0.105568 0.0221832 0 -0.101284 0.0413656 0 -0.105277 0.0239669 0 -0.102107 0.0384008 0 -0.104744 0.0269238 0 -0.103063 0.0346626 0 -0.103984 0.0306566 0 -0.0995068 0.0441586 0 -0.103498 0.0228398 0 -0.0999505 0.0423541 0 -0.103263 0.0246667 0 -0.100644 0.0393586 0 -0.10283 0.0276901 0 -0.101443 0.0355703 0 -0.102207 0.0314973 0 -0.100665 0.0431729 0 -0.105413 0.0222049 0 -0.101182 0.0413845 0 -0.105126 0.0239894 0 -0.101996 0.0384219 0 -0.104601 0.0269471 0 -0.102941 0.0346854 0 -0.103851 0.0306802 0 -0.0996256 0.0440198 0 -0.103692 0.0227587 0 -0.100077 0.042219 0 -0.103452 0.0245797 0 -0.100782 0.0392303 0 -0.10301 0.0275935 0 -0.101596 0.0354514 0 -0.102374 0.0313894 0 -0.100501 0.043235 0 -0.105147 0.0222584 0 -0.101009 0.041448 0 -0.104867 0.0240456 0 -0.101806 0.0384868 0 -0.104354 0.0270071 0 -0.102732 0.0347505 0 -0.103622 0.0307436 0 -0.099817 0.043806 0 -0.104008 0.0226312 0 -0.100281 0.0420105 0 -0.10376 0.0244429 0 -0.101006 0.0390315 0 -0.103303 0.0274422 0 -0.101844 0.0352664 0 -0.102646 0.0312211 0 -0.100288 0.0433681 0 -0.104793 0.0223538 0 -0.100782 0.0415806 0 -0.104523 0.0241467 0 -0.101557 0.0386175 0 -0.104028 0.0271168 0 -0.102456 0.0348766 0 -0.103319 0.0308623 0 -0.100049 0.0435703 0 -0.104395 0.0224857 0 -0.100528 0.0417798 0 -0.104136 0.0242873 0 -0.101278 0.0388103 0 -0.10366 0.0272707 0 -0.102146 0.0350592 0 -0.102978 0.0310313 0 -0.101902 0.0441103 0 -0.107195 0.0225399 0 -0.102471 0.0422564 0 -0.106869 0.0243626 0 -0.103367 0.0391915 0 -0.106275 0.0273885 0 -0.104415 0.0353366 0 -0.105432 0.031217 0 -0.100807 0.0431532 0 -0.105641 0.0221758 0 -0.101333 0.0413621 0 -0.105348 0.0239593 0 -0.10216 0.0383958 0 -0.104812 0.0269161 0 -0.103121 0.0346562 0 -0.104048 0.0306493 0 -0.101803 0.0439642 0 -0.107069 0.0224737 0 -0.102369 0.042118 0 -0.106746 0.0242903 0 -0.103262 0.0390653 0 -0.106155 0.027306 0 -0.104305 0.0352253 0 -0.105316 0.031121 0 -0.100901 0.0431601 0 -0.105789 0.0221667 0 -0.101432 0.0413664 0 -0.105492 0.0239505 0 -0.102267 0.0383964 0 -0.10495 0.0269081 0 -0.103238 0.034653 0 -0.104176 0.0306431 0 -0.101644 0.0437448 0 -0.106862 0.0223766 0 -0.102206 0.0419104 0 -0.106542 0.0241842 0 -0.103091 0.0388768 0 -0.105957 0.0271844 0 -0.104125 0.0350598 0 -0.105127 0.0309788 0 -0.101054 0.043206 0 -0.106024 0.0221701 0 -0.101593 0.0414067 0 -0.105722 0.0239557 0 -0.10244 0.0384283 0 -0.105169 0.0269169 0 -0.103428 0.0346757 0 -0.104381 0.0306579 0 -0.101449 0.0435117 0 -0.106598 0.0222781 0 -0.102005 0.0416908 0 -0.106283 0.0240761 0 -0.10288 0.0386788 0 -0.105707 0.0270597 0 -0.103901 0.0348873 0 -0.104889 0.0308319 0 -0.101244 0.0433217 0 -0.106307 0.0222051 0 -0.101792 0.0415132 0 -0.105998 0.0239954 0 -0.102654 0.0385205 0 -0.105434 0.0269652 0 -0.103659 0.0347517 0 -0.10463 0.0307186 0 -0.0198326 0.223737 0 -0.0257594 0.206672 0 -0.020299 0.22232 0 -0.0252153 0.208156 0 -0.0210875 0.219955 0 -0.0243301 0.210606 0 -0.0221101 0.216941 0 -0.0232418 0.213677 0 -0.0235942 0.22832 0 -0.0290479 0.211639 0 -0.0240266 0.226963 0 -0.0285462 0.213121 0 -0.0247545 0.224687 0 -0.027732 0.215553 0 -0.0256948 0.221768 0 -0.0267331 0.218579 0 -0.0200571 0.223978 0 -0.0259335 0.206904 0 -0.0205196 0.222562 0 -0.0253937 0.208392 0 -0.0213011 0.220198 0 -0.0245157 0.210846 0 -0.0223148 0.217185 0 -0.0234367 0.21392 0 -0.0231463 0.227754 0 -0.028633 0.211001 0 -0.0235805 0.226388 0 -0.0281279 0.212486 0 -0.024312 0.224098 0 -0.0273081 0.214924 0 -0.0252577 0.221163 0 -0.0263027 0.21796 0 -0.0204567 0.224429 0 -0.0262546 0.207359 0 -0.0209129 0.223017 0 -0.0257215 0.20885 0 -0.0216839 0.220658 0 -0.0248548 0.211308 0 -0.0226837 0.217649 0 -0.0237902 0.214384 0 -0.0224686 0.226898 0 -0.0280118 0.21004 0 -0.0229063 0.225519 0 -0.0275013 0.211529 0 -0.0236443 0.223209 0 -0.0266724 0.213977 0 -0.0245995 0.220251 0 -0.0256557 0.217028 0 -0.0210206 0.225098 0 -0.026728 0.208063 0 -0.0214699 0.223694 0 -0.0262027 0.209556 0 -0.0222288 0.221345 0 -0.025349 0.212015 0 -0.0232125 0.218346 0 -0.0243012 0.215089 0 -0.0217167 0.225955 0 -0.0273357 0.208994 0 -0.0221595 0.224562 0 -0.0268182 0.210486 0 -0.0229069 0.222231 0 -0.0259777 0.212941 0 -0.0238752 0.21925 0 -0.0249464 0.216006 0 -0.0188192 0.243928 0 -0.0236152 0.22926 0 -0.0192179 0.242769 0 -0.0231905 0.230591 0 -0.0198802 0.240807 0 -0.0224957 0.232768 0 -0.0207211 0.238264 0 -0.0216329 0.235457 0 -0.0313275 0.252137 0 -0.0388523 0.242261 0 -0.0319734 0.251385 0 -0.0382166 0.243192 0 -0.0330419 0.250103 0 -0.0371608 0.244697 0 -0.0343868 0.248419 0 -0.0358246 0.246532 0 -0.0193072 0.244384 0 -0.0241189 0.229882 0 -0.0197096 0.243241 0 -0.023695 0.231202 0 -0.0203771 0.241306 0 -0.0230008 0.233358 0 -0.0212227 0.238794 0 -0.0221372 0.236019 0 -0.0293664 0.251118 0 -0.0362973 0.240463 0 -0.029963 0.250304 0 -0.0357115 0.241463 0 -0.0309485 0.248917 0 -0.0347395 0.243084 0 -0.0321871 0.247097 0 -0.03351 0.245061 0 -0.020233 0.245211 0 -0.0251055 0.231035 0 -0.0206446 0.244099 0 -0.0246802 0.232332 0 -0.0213257 0.242214 0 -0.0239822 0.234447 0 -0.0221852 0.239765 0 -0.0231112 0.237052 0 -0.0266074 0.249589 0 -0.0327589 0.237846 0 -0.0271381 0.248688 0 -0.0322376 0.238943 0 -0.0280134 0.247152 0 -0.0313741 0.240722 0 -0.0291116 0.245142 0 -0.0302839 0.242897 0 -0.0217196 0.246406 0 -0.0267801 0.232777 0 -0.022152 0.245344 0 -0.0263436 0.234032 0 -0.0228655 0.243542 0 -0.025625 0.236076 0 -0.0237625 0.241194 0 -0.0247244 0.238587 0 -0.0238829 0.24792 0 -0.0293618 0.235115 0 -0.0243547 0.24693 0 -0.0288942 0.236303 0 -0.0251323 0.245246 0 -0.0281221 0.238233 0 -0.0261078 0.243047 0 -0.0271502 0.240599 0 -0.0146623 0.240196 0 -0.0196088 0.224422 0 -0.0150513 0.238922 0 -0.0191527 0.225826 0 -0.0157083 0.236779 0 -0.0184121 0.228131 0 -0.0165602 0.234021 0 -0.0175035 0.231 0 -0.0185949 0.243717 0 -0.0233861 0.228973 0 -0.018992 0.24255 0 -0.0229608 0.23031 0 -0.0196523 0.240577 0 -0.0222654 0.232496 0 -0.0204915 0.238019 0 -0.0214024 0.235197 0 -0.0149196 0.240397 0 -0.0198352 0.224662 0 -0.0153074 0.239128 0 -0.0193829 0.226064 0 -0.0159617 0.236992 0 -0.0186482 0.228366 0 -0.0168091 0.234242 0 -0.0177464 0.231229 0 -0.0181529 0.243301 0 -0.0229374 0.228412 0 -0.0185472 0.24212 0 -0.0225107 0.229759 0 -0.0192038 0.240123 0 -0.0218136 0.231963 0 -0.0200401 0.237538 0 -0.0209499 0.234688 0 -0.0153667 0.240763 0 -0.0202376 0.22511 0 -0.0157533 0.239504 0 -0.0197912 0.226508 0 -0.0164043 0.237383 0 -0.0190655 0.228802 0 -0.0172455 0.234649 0 -0.0181737 0.231652 0 -0.0174757 0.242665 0 -0.0222581 0.227564 0 -0.0178662 0.241463 0 -0.0218286 0.228925 0 -0.0185183 0.239432 0 -0.0211278 0.231154 0 -0.0193517 0.236806 0 -0.0202615 0.233915 0 -0.0159782 0.241293 0 -0.0208048 0.225776 0 -0.0163644 0.240048 0 -0.0203648 0.227166 0 -0.0170132 0.23795 0 -0.019649 0.229444 0 -0.0178488 0.235244 0 -0.0187681 0.232273 0 -0.0167087 0.241954 0 -0.0215039 0.226628 0 -0.0170962 0.240729 0 -0.0210699 0.228004 0 -0.0177453 0.238662 0 -0.0203628 0.230261 0 -0.018578 0.235992 0 -0.0194908 0.233058 0 -0.0184116 0.227023 0 -0.0257722 0.211959 0 -0.018997 0.225735 0 -0.0251073 0.21323 0 -0.0199856 0.223599 0 -0.0240195 0.215343 0 -0.0212646 0.220905 0 -0.0226734 0.218022 0 -0.018038 0.223001 0 -0.0247376 0.20664 0 -0.0185667 0.221619 0 -0.0241272 0.208037 0 -0.019461 0.21932 0 -0.0231311 0.210354 0 -0.0206209 0.216408 0 -0.0219024 0.213277 0 -0.0183213 0.226532 0 -0.0256306 0.211349 0 -0.0189022 0.225235 0 -0.0249698 0.21263 0 -0.0198833 0.223083 0 -0.023889 0.214762 0 -0.021153 0.220369 0 -0.0225519 0.217463 0 -0.017998 0.223172 0 -0.024759 0.206905 0 -0.0185318 0.221795 0 -0.0241435 0.208292 0 -0.0194347 0.219508 0 -0.0231387 0.210593 0 -0.0206056 0.216612 0 -0.021899 0.213498 0 -0.0181906 0.22577 0 -0.0254129 0.21039 0 -0.0187639 0.224458 0 -0.0247592 0.21169 0 -0.0197324 0.222281 0 -0.0236903 0.213852 0 -0.0209863 0.219533 0 -0.0223685 0.21659 0 -0.0179663 0.223534 0 -0.024827 0.207433 0 -0.0185086 0.222169 0 -0.0242032 0.208803 0 -0.0194255 0.219901 0 -0.0231844 0.211077 0 -0.0206142 0.217032 0 -0.0219268 0.213951 0 -0.018064 0.224909 0 -0.0251729 0.209285 0 -0.0186274 0.223579 0 -0.0245285 0.210608 0 -0.0195797 0.221371 0 -0.0234752 0.212808 0 -0.0208131 0.218582 0 -0.0221734 0.215591 0 -0.0179831 0.224124 0 -0.0249659 0.208246 0 -0.0185357 0.222775 0 -0.0243318 0.209595 0 -0.0194699 0.220535 0 -0.023296 0.211834 0 -0.0206806 0.217703 0 -0.0220167 0.214665 0 -0.0123237 0.239327 0 -0.017811 0.223603 0 -0.0127442 0.238038 0 -0.0172972 0.224982 0 -0.0134605 0.235877 0 -0.0164646 0.227255 0 -0.0143989 0.23311 0 -0.0154476 0.230099 0 -0.0145403 0.240104 0 -0.0195027 0.224313 0 -0.0149299 0.238828 0 -0.0190447 0.225717 0 -0.0155883 0.236682 0 -0.018301 0.228025 0 -0.0164426 0.23392 0 -0.0173891 0.230896 0 -0.0124421 0.239256 0 -0.0178781 0.223492 0 -0.0128591 0.237965 0 -0.0173694 0.224876 0 -0.0135693 0.235801 0 -0.016545 0.227157 0 -0.0144991 0.233028 0 -0.0155378 0.230009 0 -0.0142944 0.239926 0 -0.0192916 0.224105 0 -0.0146856 0.238646 0 -0.0188296 0.225511 0 -0.0153472 0.236493 0 -0.0180795 0.22782 0 -0.0162067 0.233724 0 -0.0171601 0.230695 0 -0.0126723 0.239204 0 -0.0180248 0.223387 0 -0.0130838 0.237911 0 -0.0175245 0.224779 0 -0.013784 0.235743 0 -0.0167135 0.22707 0 -0.0147 0.232963 0 -0.0157226 0.229934 0 -0.0139052 0.239667 0 -0.0189655 0.223812 0 -0.0142995 0.238381 0 -0.0184962 0.225217 0 -0.0149673 0.236221 0 -0.0177348 0.227528 0 -0.0158365 0.233443 0 -0.0168022 0.230407 0 -0.0130185 0.239247 0 -0.0182692 0.223388 0 -0.0134236 0.237954 0 -0.0177794 0.224787 0 -0.014112 0.235784 0 -0.0169852 0.227089 0 -0.0150115 0.233 0 -0.0160143 0.229963 0 -0.0134515 0.239413 0 -0.0185995 0.223541 0 -0.0138505 0.238123 0 -0.0181206 0.224945 0 -0.0145276 0.235956 0 -0.0173438 0.227254 0 -0.0154105 0.233172 0 -0.0163934 0.230133 0 -0.012005 0.242504 0 -0.0181306 0.227649 0 -0.0124739 0.241271 0 -0.0175582 0.228935 0 -0.0132735 0.23921 0 -0.0166295 0.231064 0 -0.0143218 0.236583 0 -0.0154937 0.233737 0 -0.012272 0.239373 0 -0.0177844 0.223671 0 -0.0126943 0.238085 0 -0.0172682 0.225047 0 -0.0134137 0.235926 0 -0.0164316 0.227316 0 -0.0143562 0.233162 0 -0.0154098 0.230155 0 -0.0119682 0.242105 0 -0.0180425 0.227162 0 -0.012433 0.240866 0 -0.0174746 0.228457 0 -0.0132256 0.238794 0 -0.0165533 0.230599 0 -0.0142649 0.236152 0 -0.0154269 0.233289 0 -0.0121776 0.239491 0 -0.0177419 0.223838 0 -0.0126035 0.238206 0 -0.0172207 0.225209 0 -0.0133294 0.236052 0 -0.016376 0.227469 0 -0.0142807 0.233295 0 -0.0153443 0.230297 0 -0.0119271 0.241491 0 -0.0179155 0.226407 0 -0.012385 0.240242 0 -0.0173552 0.227717 0 -0.013166 0.238153 0 -0.0164465 0.229882 0 -0.0141903 0.235488 0 -0.0153358 0.232599 0 -0.0120553 0.239753 0 -0.0177062 0.224195 0 -0.0124874 0.238474 0 -0.0171768 0.225555 0 -0.0132242 0.23633 0 -0.0163186 0.227798 0 -0.0141902 0.233588 0 -0.0152705 0.230608 0 -0.0119147 0.240808 0 -0.0177937 0.225555 0 -0.0123641 0.239548 0 -0.0172432 0.226882 0 -0.0131305 0.237439 0 -0.0163506 0.229074 0 -0.0141357 0.234746 0 -0.0152601 0.231824 0 -0.0119571 0.240199 0 -0.017718 0.224778 0 -0.0123974 0.238927 0 -0.0171783 0.226123 0 -0.0131484 0.236799 0 -0.0163035 0.228343 0 -0.0141332 0.234079 0 -0.0152348 0.231125 0 -0.034669 0.19627 0 -0.0433315 0.182767 0 -0.0353959 0.19508 0 -0.042586 0.183877 0 -0.0366064 0.193124 0 -0.0413524 0.185733 0 -0.0381429 0.190684 0 -0.0398002 0.188104 0 -0.0330125 0.189132 0 -0.041247 0.173746 0 -0.0336974 0.187785 0 -0.040533 0.175017 0 -0.0348407 0.185567 0 -0.0393532 0.177141 0 -0.0362967 0.182792 0 -0.0378726 0.179851 0 -0.0344807 0.195505 0 -0.0431104 0.181851 0 -0.0352044 0.194302 0 -0.0423674 0.182974 0 -0.0364098 0.192325 0 -0.041138 0.184851 0 -0.0379402 0.189858 0 -0.0395913 0.18725 0 -0.0330938 0.189547 0 -0.0413693 0.174332 0 -0.0337828 0.188214 0 -0.0406523 0.175588 0 -0.0349327 0.186018 0 -0.0394676 0.177686 0 -0.0363965 0.183274 0 -0.0379802 0.180365 0 -0.0341832 0.194289 0 -0.0427573 0.180381 0 -0.0349016 0.193064 0 -0.0420185 0.181525 0 -0.0360983 0.19105 0 -0.0407963 0.183438 0 -0.0376184 0.188539 0 -0.0392589 0.185881 0 -0.033258 0.190329 0 -0.0415991 0.175392 0 -0.0339535 0.189018 0 -0.0408775 0.176623 0 -0.0351138 0.18686 0 -0.0396847 0.178681 0 -0.0365901 0.184165 0 -0.0381864 0.181309 0 -0.0338382 0.192856 0 -0.0423398 0.178622 0 -0.0345495 0.191604 0 -0.0416065 0.179793 0 -0.0357351 0.189544 0 -0.0403935 0.181751 0 -0.0372416 0.186974 0 -0.0388684 0.184253 0 -0.0335129 0.191467 0 -0.0419332 0.176873 0 -0.0342162 0.190184 0 -0.0412059 0.178075 0 -0.035389 0.188074 0 -0.0400032 0.180084 0 -0.0368803 0.18544 0 -0.0384917 0.18265 0 -0.0250302 0.205847 0 -0.0326481 0.189606 0 -0.025648 0.204447 0 -0.0319715 0.190967 0 -0.0266858 0.202133 0 -0.0308602 0.193235 0 -0.0280193 0.199221 0 -0.0294771 0.196115 0 -0.0259475 0.205848 0 -0.0329105 0.18826 0 -0.0265047 0.20436 0 -0.0322841 0.189761 0 -0.0274439 0.201887 0 -0.0312586 0.19225 0 -0.028656 0.198756 0 -0.029988 0.195391 0 -0.0250295 0.205641 0 -0.0325902 0.189263 0 -0.025642 0.204232 0 -0.031918 0.190639 0 -0.0266712 0.2019 0 -0.0308142 0.192928 0 -0.0279941 0.198966 0 -0.0294409 0.195833 0 -0.025795 0.205662 0 -0.0328059 0.188159 0 -0.0263567 0.204178 0 -0.0321759 0.18965 0 -0.0273032 0.201714 0 -0.0311443 0.192124 0 -0.0285243 0.198597 0 -0.0298656 0.195248 0 -0.0250623 0.205392 0 -0.0325264 0.188794 0 -0.0256659 0.203967 0 -0.0318616 0.190191 0 -0.0266807 0.201608 0 -0.0307706 0.192515 0 -0.0279858 0.198637 0 -0.029414 0.195462 0 -0.025571 0.205422 0 -0.0326671 0.188075 0 -0.0261407 0.203947 0 -0.0320307 0.189549 0 -0.0271002 0.2015 0 -0.030988 0.191996 0 -0.0283372 0.198407 0 -0.0296948 0.195089 0 -0.0251628 0.205234 0 -0.0325038 0.188372 0 -0.0257551 0.203791 0 -0.0318486 0.189796 0 -0.0267515 0.2014 0 -0.0307738 0.192162 0 -0.0280338 0.198385 0 -0.0294384 0.195159 0 -0.0253412 0.205248 0 -0.0325526 0.188124 0 -0.0259216 0.203788 0 -0.0319074 0.189574 0 -0.0268985 0.201366 0 -0.0308496 0.191984 0 -0.0281569 0.198308 0 -0.0295366 0.195032 0 -0.0260971 0.211344 0 -0.0343173 0.196851 0 -0.026771 0.21008 0 -0.0335948 0.198052 0 -0.0279001 0.207996 0 -0.0324051 0.200058 0 -0.0293455 0.205386 0 -0.0309187 0.202615 0 -0.0250362 0.205962 0 -0.0326815 0.189788 0 -0.0256565 0.204568 0 -0.0320028 0.191143 0 -0.0266985 0.202261 0 -0.0308879 0.193401 0 -0.028037 0.199362 0 -0.0295 0.196268 0 -0.0259535 0.210728 0 -0.0341305 0.196092 0 -0.0266233 0.209452 0 -0.0334113 0.197306 0 -0.0277459 0.207349 0 -0.0322272 0.199333 0 -0.0291832 0.204714 0 -0.0307482 0.201915 0 -0.0250602 0.206232 0 -0.0327608 0.190197 0 -0.0256856 0.204848 0 -0.0320778 0.191539 0 -0.0267359 0.202559 0 -0.0309557 0.193775 0 -0.0280847 0.199683 0 -0.0295583 0.196616 0 -0.0257324 0.20976 0 -0.0338356 0.194886 0 -0.0263953 0.208465 0 -0.0331221 0.196121 0 -0.0275066 0.20633 0 -0.0319475 0.198183 0 -0.0289302 0.203653 0 -0.0304811 0.200809 0 -0.0251323 0.206768 0 -0.0329218 0.190967 0 -0.0257659 0.205402 0 -0.032232 0.192287 0 -0.0268296 0.203143 0 -0.0310982 0.194487 0 -0.0281949 0.200307 0 -0.0296855 0.197284 0 -0.025488 0.208643 0 -0.0334942 0.193466 0 -0.0261418 0.207325 0 -0.0327879 0.194729 0 -0.0272384 0.205149 0 -0.031626 0.196835 0 -0.0286439 0.20242 0 -0.0301762 0.199517 0 -0.0252759 0.207593 0 -0.0331727 0.192092 0 -0.0259195 0.206249 0 -0.0324748 0.193384 0 -0.0269995 0.20403 0 -0.0313271 0.195539 0 -0.0283847 0.201245 0 -0.029896 0.19828 0 -0.0513303 0.149734 0 -0.0616781 0.130208 0 -0.052189 0.148091 0 -0.0607795 0.131888 0 -0.0536235 0.145359 0 -0.0592952 0.134667 0 -0.0554521 0.141896 0 -0.0574329 0.138163 0 -0.0542306 0.152574 0 -0.064513 0.133028 0 -0.0551025 0.150919 0 -0.0636399 0.134698 0 -0.0565517 0.148169 0 -0.0621893 0.137465 0 -0.0583854 0.144692 0 -0.0603546 0.140954 0 -0.051476 0.149766 0 -0.0618395 0.130273 0 -0.0523374 0.148125 0 -0.060941 0.13195 0 -0.0537759 0.145397 0 -0.0594563 0.134724 0 -0.0556086 0.141939 0 -0.0575925 0.138212 0 -0.0538594 0.152113 0 -0.064166 0.1326 0 -0.0547314 0.150461 0 -0.0632888 0.134268 0 -0.0561816 0.147718 0 -0.0618323 0.137031 0 -0.0580179 0.144247 0 -0.0599916 0.140516 0 -0.0517506 0.149902 0 -0.0621302 0.130449 0 -0.0526157 0.148263 0 -0.0612329 0.132121 0 -0.0540595 0.145538 0 -0.059749 0.134887 0 -0.0558971 0.142086 0 -0.0578842 0.138367 0 -0.0533041 0.151442 0 -0.0636441 0.131973 0 -0.0541759 0.149796 0 -0.0627609 0.133639 0 -0.055627 0.14706 0 -0.0612957 0.136398 0 -0.0574666 0.143599 0 -0.0594465 0.139876 0 -0.0521635 0.150223 0 -0.0625473 0.130794 0 -0.0530321 0.148584 0 -0.0616529 0.132461 0 -0.0544803 0.14586 0 -0.0601725 0.135221 0 -0.0563215 0.14241 0 -0.0583095 0.138695 0 -0.0527014 0.150759 0 -0.0630708 0.131323 0 -0.0535722 0.149117 0 -0.0621814 0.132988 0 -0.0550229 0.146389 0 -0.0607075 0.135746 0 -0.0568646 0.142936 0 -0.0588501 0.13922 0 -0.044068 0.172717 0 -0.0539988 0.153617 0 -0.0448853 0.171123 0 -0.0531306 0.15527 0 -0.0462538 0.168465 0 -0.0516984 0.158002 0 -0.0480037 0.165084 0 -0.0499054 0.161431 0 -0.061382 0.196508 0 -0.0684722 0.176634 0 -0.0620061 0.194897 0 -0.0678909 0.178404 0 -0.0630331 0.192192 0 -0.0669173 0.181308 0 -0.0643151 0.188717 0 -0.0656714 0.184917 0 -0.044469 0.173323 0 -0.0544213 0.15416 0 -0.04529 0.171722 0 -0.0535532 0.155818 0 -0.046664 0.169054 0 -0.0521204 0.158557 0 -0.0484194 0.165662 0 -0.0503252 0.161997 0 -0.0581433 0.192196 0 -0.0659406 0.172371 0 -0.0588208 0.190576 0 -0.0652928 0.174123 0 -0.0599394 0.18786 0 -0.0642114 0.177003 0 -0.061342 0.184383 0 -0.0628338 0.180592 0 -0.0453157 0.174586 0 -0.0552711 0.15531 0 -0.046141 0.172975 0 -0.0544066 0.156977 0 -0.0475203 0.17029 0 -0.0529782 0.159731 0 -0.0492795 0.166877 0 -0.0511858 0.16319 0 -0.0537693 0.186326 0 -0.0624688 0.166597 0 -0.0545136 0.184696 0 -0.061735 0.168323 0 -0.0557473 0.181973 0 -0.0605145 0.171168 0 -0.057303 0.178498 0 -0.0589677 0.174725 0 -0.0469445 0.176937 0 -0.0567768 0.15751 0 -0.0477658 0.175314 0 -0.0559287 0.159191 0 -0.0491356 0.172608 0 -0.0545254 0.161968 0 -0.050878 0.16917 0 -0.0527604 0.165455 0 -0.0497613 0.180867 0 -0.0591944 0.161278 0 -0.0505576 0.179236 0 -0.0583885 0.162979 0 -0.0518821 0.176516 0 -0.0570521 0.165787 0 -0.0535602 0.173054 0 -0.0553658 0.169308 0 -0.0413497 0.169364 0 -0.0509155 0.15053 0 -0.0421264 0.167794 0 -0.0500654 0.152166 0 -0.0434303 0.165177 0 -0.0486699 0.154865 0 -0.0451044 0.161849 0 -0.0469338 0.158248 0 -0.0438892 0.172448 0 -0.0538082 0.153377 0 -0.0447046 0.170856 0 -0.0529402 0.155028 0 -0.0460705 0.168203 0 -0.0515086 0.157755 0 -0.0478176 0.164828 0 -0.049717 0.16118 0 -0.041448 0.169378 0 -0.0510599 0.150561 0 -0.0422293 0.16781 0 -0.0502067 0.152195 0 -0.0435406 0.165195 0 -0.0488056 0.154891 0 -0.0452236 0.161869 0 -0.047062 0.158272 0 -0.0435415 0.17193 0 -0.0534371 0.152914 0 -0.0443534 0.170344 0 -0.0525694 0.154561 0 -0.045714 0.167699 0 -0.0511392 0.157281 0 -0.0474556 0.164334 0 -0.0493505 0.160697 0 -0.0416544 0.169501 0 -0.0513325 0.150696 0 -0.0424422 0.167933 0 -0.050475 0.152328 0 -0.043764 0.16532 0 -0.0490661 0.155022 0 -0.0454599 0.161996 0 -0.0473113 0.1584 0 -0.0430244 0.17118 0 -0.0528821 0.15224 0 -0.0438312 0.1696 0 -0.0520153 0.153881 0 -0.045184 0.166967 0 -0.0505877 0.156592 0 -0.0469169 0.163617 0 -0.0488042 0.159994 0 -0.0419966 0.169836 0 -0.0517436 0.151017 0 -0.0427911 0.168267 0 -0.0508819 0.15265 0 -0.0441242 0.165651 0 -0.0494651 0.155345 0 -0.0458338 0.162324 0 -0.0476989 0.158726 0 -0.0424722 0.17042 0 -0.0522801 0.151554 0 -0.0432731 0.168847 0 -0.0514152 0.15319 0 -0.0446165 0.166225 0 -0.0499921 0.155892 0 -0.0463386 0.162889 0 -0.048216 0.159281 0 -0.0521055 0.160229 0 -0.0613801 0.138316 0 -0.0528529 0.158393 0 -0.0605501 0.14021 0 -0.0541101 0.155336 0 -0.05919 0.143338 0 -0.0557284 0.151456 0 -0.0575021 0.147267 0 -0.0507047 0.152588 0 -0.0605637 0.132082 0 -0.0515071 0.150869 0 -0.0596903 0.133854 0 -0.0528536 0.148008 0 -0.0582552 0.13678 0 -0.0545814 0.144376 0 -0.0564676 0.140457 0 -0.0519349 0.159442 0 -0.0612569 0.137658 0 -0.0526866 0.157617 0 -0.0604232 0.139541 0 -0.0539508 0.154579 0 -0.0590567 0.142651 0 -0.0555777 0.150721 0 -0.0573605 0.146557 0 -0.0507586 0.153074 0 -0.0605675 0.13246 0 -0.051556 0.151346 0 -0.0596975 0.134241 0 -0.0528945 0.14847 0 -0.0582685 0.137183 0 -0.0546126 0.144819 0 -0.0564891 0.140879 0 -0.0516679 0.158183 0 -0.0610702 0.13661 0 -0.0524268 0.156376 0 -0.0602302 0.138474 0 -0.0537029 0.153367 0 -0.0588531 0.141555 0 -0.0553447 0.149547 0 -0.0571429 0.145423 0 -0.0508803 0.153958 0 -0.0606055 0.133159 0 -0.0516694 0.152215 0 -0.0597414 0.134956 0 -0.0529947 0.149313 0 -0.0583226 0.137925 0 -0.0546968 0.14563 0 -0.0565572 0.141654 0 -0.0513638 0.156684 0 -0.0608699 0.135371 0 -0.0521323 0.154899 0 -0.0600219 0.137213 0 -0.0534238 0.151926 0 -0.0586311 0.140256 0 -0.0550848 0.148152 0 -0.056903 0.144078 0 -0.0510862 0.155203 0 -0.0607053 0.134162 0 -0.0518652 0.15344 0 -0.0598489 0.13598 0 -0.053174 0.150505 0 -0.0584435 0.138984 0 -0.054856 0.146779 0 -0.056696 0.142757 0 -0.0415335 0.172774 0 -0.0502963 0.153197 0 -0.0422311 0.171148 0 -0.0495033 0.154902 0 -0.0434081 0.168434 0 -0.0482074 0.157715 0 -0.0449297 0.164979 0 -0.0466053 0.161237 0 -0.0413087 0.169374 0 -0.0508505 0.150528 0 -0.0420831 0.167803 0 -0.0500019 0.152165 0 -0.0433832 0.165185 0 -0.0486093 0.154866 0 -0.0450526 0.161854 0 -0.0468773 0.158252 0 -0.041432 0.17225 0 -0.0502632 0.152764 0 -0.0421359 0.170631 0 -0.0494649 0.154461 0 -0.0433232 0.16793 0 -0.04816 0.15726 0 -0.0448574 0.16449 0 -0.0465462 0.160766 0 -0.0412382 0.169426 0 -0.0507265 0.150553 0 -0.0420072 0.167854 0 -0.0498815 0.152193 0 -0.0432986 0.165232 0 -0.0484953 0.154898 0 -0.0449577 0.161897 0 -0.0467721 0.158289 0 -0.0412948 0.171477 0 -0.0502426 0.152132 0 -0.0420098 0.169869 0 -0.0494356 0.153817 0 -0.043215 0.167186 0 -0.0481157 0.156595 0 -0.044771 0.163771 0 -0.0464821 0.160074 0 -0.0411609 0.169612 0 -0.0505512 0.150676 0 -0.04192 0.168035 0 -0.0497129 0.152322 0 -0.0431956 0.165405 0 -0.0483384 0.155037 0 -0.0448358 0.16206 0 -0.0466314 0.15844 0 -0.0411794 0.170671 0 -0.0502764 0.151486 0 -0.041909 0.169075 0 -0.0494586 0.153156 0 -0.0431376 0.166414 0 -0.0481199 0.155909 0 -0.0447218 0.163026 0 -0.0464613 0.159359 0 -0.0411313 0.17002 0 -0.0503848 0.150978 0 -0.0418766 0.168435 0 -0.0495559 0.152634 0 -0.0431301 0.165792 0 -0.0481981 0.155366 0 -0.0447441 0.162429 0 -0.0465135 0.158789 0 -0.0436671 0.182077 0 -0.0517458 0.161117 0 -0.0443092 0.180335 0 -0.0510111 0.162943 0 -0.045392 0.177428 0 -0.0498129 0.165953 0 -0.0467919 0.173729 0 -0.0483349 0.169723 0 -0.0415877 0.173044 0 -0.0503181 0.15342 0 -0.0422824 0.171414 0 -0.0495277 0.15513 0 -0.0434546 0.168694 0 -0.048236 0.15795 0 -0.0449702 0.165231 0 -0.0466396 0.16148 0 -0.0434462 0.181161 0 -0.0515731 0.160326 0 -0.0440922 0.179429 0 -0.0508343 0.162141 0 -0.0451815 0.17654 0 -0.049629 0.165133 0 -0.0465898 0.172863 0 -0.0481422 0.168881 0 -0.0417092 0.173632 0 -0.0503745 0.15391 0 -0.0423981 0.171994 0 -0.0495892 0.155629 0 -0.0435608 0.169261 0 -0.0483064 0.158462 0 -0.0450646 0.16578 0 -0.0467214 0.16201 0 -0.0430937 0.17969 0 -0.0513026 0.159058 0 -0.043746 0.177975 0 -0.0505565 0.160856 0 -0.0448463 0.175115 0 -0.0493391 0.16382 0 -0.046269 0.171474 0 -0.0478373 0.167531 0 -0.041938 0.174694 0 -0.0505002 0.154801 0 -0.0426182 0.173042 0 -0.0497234 0.156535 0 -0.0437662 0.170285 0 -0.0484549 0.159393 0 -0.0452513 0.166775 0 -0.0468882 0.162972 0 -0.0426769 0.177929 0 -0.0509939 0.157549 0 -0.0433375 0.176236 0 -0.0502382 0.159325 0 -0.0444522 0.173411 0 -0.049005 0.162253 0 -0.0458938 0.169814 0 -0.0474831 0.165919 0 -0.0422712 0.176179 0 -0.0507111 0.156057 0 -0.0429414 0.174507 0 -0.0499447 0.157811 0 -0.0440726 0.171718 0 -0.0486935 0.160702 0 -0.0455359 0.168168 0 -0.0471491 0.164322 0 -0.0723976 0.113975 0 -0.0828713 0.0913319 0 -0.0732899 0.112046 0 -0.0819883 0.0932577 0 -0.074772 0.108849 0 -0.0805177 0.0964516 0 -0.0766451 0.104813 0 -0.0786524 0.100485 0 -0.0719826 0.109316 0 -0.0825248 0.0880835 0 -0.0728928 0.107511 0 -0.0816483 0.0898941 0 -0.0743998 0.104518 0 -0.0801833 0.0928944 0 -0.0762955 0.100737 0 -0.0783161 0.0966796 0 -0.0723135 0.11346 0 -0.0828037 0.0909481 0 -0.0732079 0.111543 0 -0.0819201 0.0928629 0 -0.0746934 0.108364 0 -0.0804483 0.0960386 0 -0.0765702 0.104352 0 -0.0785808 0.100049 0 -0.0719615 0.109571 0 -0.0825136 0.0882325 0 -0.0728713 0.107757 0 -0.081635 0.0900514 0 -0.0743781 0.104748 0 -0.0801671 0.093066 0 -0.0762746 0.100948 0 -0.0782971 0.0968697 0 -0.0721911 0.112646 0 -0.0827064 0.0903481 0 -0.0730891 0.110747 0 -0.0818222 0.0922452 0 -0.07458 0.107599 0 -0.0803486 0.0953911 0 -0.0764625 0.103625 0 -0.0784779 0.0993635 0 -0.0719526 0.110061 0 -0.0825129 0.0885398 0 -0.0728611 0.108231 0 -0.0816316 0.0903733 0 -0.0743666 0.105195 0 -0.0801601 0.0934125 0 -0.0762628 0.101361 0 -0.0782869 0.0972482 0 -0.0720699 0.111698 0 -0.0826105 0.0896626 0 -0.072972 0.109822 0 -0.0817261 0.0915379 0 -0.0744689 0.106711 0 -0.0802515 0.0946475 0 -0.0763577 0.102785 0 -0.0783779 0.0985734 0 -0.0719851 0.110791 0 -0.0825424 0.0890274 0 -0.072891 0.108939 0 -0.081659 0.0908805 0 -0.0743932 0.105868 0 -0.080185 0.0939527 0 -0.0762869 0.10199 0 -0.0783103 0.0978308 0 -0.0609938 0.131053 0 -0.0715555 0.110078 0 -0.0618762 0.129281 0 -0.0706453 0.111876 0 -0.0633483 0.126337 0 -0.0691387 0.114853 0 -0.0652206 0.12261 0 -0.067243 0.118601 0 -0.06204 0.129369 0 -0.0726169 0.109436 0 -0.0629412 0.127682 0 -0.071723 0.111146 0 -0.0644372 0.124883 0 -0.0702361 0.113975 0 -0.0663271 0.121343 0 -0.0683525 0.117535 0 -0.061014 0.130732 0 -0.0715948 0.109866 0 -0.0618993 0.128969 0 -0.0706843 0.111655 0 -0.0633756 0.12604 0 -0.0691766 0.114617 0 -0.0652524 0.122334 0 -0.0672786 0.118346 0 -0.0618919 0.129344 0 -0.0724879 0.109348 0 -0.0627931 0.127653 0 -0.0715908 0.111063 0 -0.0642899 0.124845 0 -0.0700993 0.113901 0 -0.0661818 0.121294 0 -0.068211 0.117474 0 -0.0610795 0.130276 0 -0.0716857 0.109585 0 -0.0619692 0.128528 0 -0.0707753 0.11136 0 -0.0634519 0.125624 0 -0.0692669 0.114297 0 -0.0653352 0.121949 0 -0.0673662 0.117994 0 -0.0616668 0.129369 0 -0.0722851 0.109255 0 -0.0625673 0.127668 0 -0.0713835 0.11098 0 -0.064064 0.124845 0 -0.0698856 0.113835 0 -0.0659577 0.121272 0 -0.0679911 0.117429 0 -0.0612157 0.129834 0 -0.0718417 0.10935 0 -0.0621101 0.128103 0 -0.0709327 0.111107 0 -0.0635994 0.125228 0 -0.0694253 0.114015 0 -0.0654888 0.12159 0 -0.0675237 0.117675 0 -0.0614226 0.129519 0 -0.0720533 0.109237 0 -0.0623209 0.127805 0 -0.0711474 0.110977 0 -0.0638152 0.124958 0 -0.0696437 0.113856 0 -0.0657083 0.121356 0 -0.0677441 0.11748 0 -0.0617853 0.137395 0 -0.0719653 0.114911 0 -0.0626252 0.135495 0 -0.0710766 0.116838 0 -0.0640304 0.132339 0 -0.0696105 0.120028 0 -0.0658254 0.128344 0 -0.0677743 0.124046 0 -0.0609895 0.131221 0 -0.0715408 0.110192 0 -0.0618704 0.129444 0 -0.070631 0.111995 0 -0.0633403 0.126493 0 -0.0691251 0.11498 0 -0.0652102 0.122757 0 -0.0672307 0.118738 0 -0.061664 0.136743 0 -0.07188 0.11439 0 -0.0625074 0.134854 0 -0.0709889 0.116306 0 -0.0639184 0.131716 0 -0.0695184 0.119477 0 -0.0657204 0.127745 0 -0.0676762 0.123472 0 -0.0609917 0.131594 0 -0.07152 0.110452 0 -0.0618696 0.129808 0 -0.0706109 0.112264 0 -0.0633347 0.12684 0 -0.0691068 0.115265 0 -0.0651995 0.123084 0 -0.0672156 0.119043 0 -0.0614803 0.135703 0 -0.0717559 0.113568 0 -0.0623298 0.133833 0 -0.0708608 0.115465 0 -0.0637505 0.130726 0 -0.0693833 0.118606 0 -0.065564 0.126793 0 -0.0675314 0.122561 0 -0.061027 0.132285 0 -0.0715119 0.11095 0 -0.0618994 0.130483 0 -0.0706046 0.112779 0 -0.0633562 0.127488 0 -0.0691044 0.115806 0 -0.0652118 0.123697 0 -0.0672195 0.119619 0 -0.0612837 0.134476 0 -0.0716325 0.112608 0 -0.0621409 0.132628 0 -0.0707328 0.114482 0 -0.0635738 0.129559 0 -0.0692469 0.117585 0 -0.0654017 0.125673 0 -0.0673831 0.121493 0 -0.0611232 0.133278 0 -0.0715458 0.11169 0 -0.0619884 0.131454 0 -0.0706418 0.11354 0 -0.063434 0.128423 0 -0.0691478 0.116603 0 -0.0652767 0.124588 0 -0.0672724 0.120461 0 -0.0575474 0.183548 0 -0.0659636 0.158254 0 -0.0582203 0.181426 0 -0.0652041 0.160438 0 -0.0593541 0.177894 0 -0.0639624 0.164047 0 -0.0608173 0.173414 0 -0.0624262 0.16858 0 -0.0547101 0.171558 0 -0.0634665 0.147944 0 -0.0554125 0.169578 0 -0.0626787 0.149984 0 -0.056595 0.166284 0 -0.0613898 0.153355 0 -0.0581194 0.162102 0 -0.0597934 0.157589 0 -0.0572968 0.182485 0 -0.0657373 0.157338 0 -0.0579718 0.180375 0 -0.0649758 0.15951 0 -0.059109 0.176865 0 -0.0637307 0.163098 0 -0.0605766 0.172411 0 -0.0621901 0.167604 0 -0.0549405 0.172533 0 -0.0636629 0.14878 0 -0.0556399 0.170542 0 -0.062878 0.150832 0 -0.0568176 0.167228 0 -0.0615937 0.154223 0 -0.0583359 0.163021 0 -0.0600033 0.158481 0 -0.0568841 0.180739 0 -0.0653669 0.155834 0 -0.0575628 0.17865 0 -0.0646019 0.157985 0 -0.0587061 0.175173 0 -0.0633509 0.161539 0 -0.0601813 0.170762 0 -0.0618028 0.166002 0 -0.0553278 0.17417 0 -0.0639962 0.150184 0 -0.0560226 0.172159 0 -0.0632157 0.152257 0 -0.0571925 0.168812 0 -0.061939 0.15568 0 -0.058701 0.164564 0 -0.0603581 0.15998 0 -0.0563693 0.178564 0 -0.0649084 0.153962 0 -0.0570528 0.176501 0 -0.0641387 0.156087 0 -0.0582042 0.173067 0 -0.0628799 0.159598 0 -0.0596895 0.16871 0 -0.0613219 0.164008 0 -0.0558255 0.17627 0 -0.0644294 0.151989 0 -0.0565147 0.174234 0 -0.0636543 0.154087 0 -0.0576754 0.170846 0 -0.0623866 0.157552 0 -0.0591724 0.166546 0 -0.0608171 0.161905 0 -0.0466952 0.194599 0 -0.0542607 0.172043 0 -0.0472927 0.192722 0 -0.0535695 0.174006 0 -0.0483023 0.189592 0 -0.0524432 0.177244 0 -0.0496105 0.185609 0 -0.0510559 0.181299 0 -0.0437762 0.182529 0 -0.0518318 0.161508 0 -0.0444164 0.180781 0 -0.0510992 0.163339 0 -0.0454961 0.177866 0 -0.0499043 0.166358 0 -0.0468919 0.174156 0 -0.0484305 0.170139 0 -0.0464317 0.193497 0 -0.054033 0.171077 0 -0.0470322 0.191631 0 -0.0533388 0.173029 0 -0.0480469 0.18852 0 -0.0522074 0.176247 0 -0.0493615 0.184562 0 -0.0508137 0.180277 0 -0.0440048 0.183473 0 -0.0520134 0.162326 0 -0.0446411 0.181714 0 -0.0512849 0.164168 0 -0.0457143 0.178782 0 -0.0500967 0.167205 0 -0.0471018 0.175049 0 -0.0486314 0.171008 0 -0.0459991 0.191697 0 -0.0536625 0.169501 0 -0.0466051 0.18985 0 -0.052963 0.171433 0 -0.0476286 0.18677 0 -0.051823 0.174619 0 -0.0489544 0.182852 0 -0.0504184 0.17861 0 -0.0443938 0.185076 0 -0.0523265 0.163719 0 -0.0450237 0.1833 0 -0.0516044 0.165579 0 -0.0460862 0.180337 0 -0.050427 0.168646 0 -0.0474601 0.176568 0 -0.0489752 0.172486 0 -0.0454624 0.189476 0 -0.0532086 0.167557 0 -0.0460758 0.187653 0 -0.0525023 0.169466 0 -0.0471114 0.184612 0 -0.0513508 0.172613 0 -0.048452 0.180743 0 -0.0499317 0.176554 0 -0.044901 0.187163 0 -0.0527414 0.165537 0 -0.0455229 0.185364 0 -0.0520272 0.16742 0 -0.0465721 0.182364 0 -0.0508626 0.170525 0 -0.0479296 0.178547 0 -0.0494272 0.174414 0 -0.0500062 0.208882 0 -0.0572239 0.184575 0 -0.0505767 0.206855 0 -0.0565637 0.186687 0 -0.0515399 0.203476 0 -0.0554887 0.19017 0 -0.0527873 0.199181 0 -0.0541655 0.194536 0 -0.0468237 0.195138 0 -0.0543722 0.172516 0 -0.0474198 0.193255 0 -0.0536825 0.174485 0 -0.0484269 0.190116 0 -0.0525586 0.177731 0 -0.0497321 0.186121 0 -0.0511743 0.181798 0 -0.0497314 0.207665 0 -0.0569722 0.183506 0 -0.0503036 0.20565 0 -0.05631 0.185605 0 -0.0512699 0.202293 0 -0.0552315 0.189068 0 -0.0525214 0.198024 0 -0.053904 0.193408 0 -0.0470895 0.196257 0 -0.054604 0.173497 0 -0.0476827 0.194362 0 -0.0539172 0.175477 0 -0.0486852 0.191203 0 -0.0527981 0.178743 0 -0.0499843 0.187184 0 -0.05142 0.182835 0 -0.0492769 0.205664 0 -0.0565578 0.18175 0 -0.0498521 0.203671 0 -0.0558919 0.183829 0 -0.0508237 0.200348 0 -0.0548074 0.187257 0 -0.0520821 0.196123 0 -0.0534725 0.191553 0 -0.0475327 0.198135 0 -0.0549936 0.175143 0 -0.0481216 0.19622 0 -0.0543115 0.177143 0 -0.0491168 0.193029 0 -0.0532002 0.180442 0 -0.0504065 0.188968 0 -0.0518319 0.184575 0 -0.0487055 0.203173 0 -0.0560406 0.179563 0 -0.0492848 0.201205 0 -0.0553698 0.181616 0 -0.0502634 0.197926 0 -0.0542771 0.185001 0 -0.0515312 0.193755 0 -0.0529321 0.189244 0 -0.0480964 0.200543 0 -0.0554941 0.177256 0 -0.0486804 0.198603 0 -0.0548176 0.179281 0 -0.0496672 0.19537 0 -0.0537157 0.182622 0 -0.0509459 0.191257 0 -0.052359 0.186807 0 -0.0638765 0.211201 0 -0.071913 0.182093 0 -0.0645155 0.208751 0 -0.0711842 0.1846 0 -0.0655938 0.204678 0 -0.0699942 0.188744 0 -0.066988 0.199517 0 -0.0685243 0.193954 0 -0.0608057 0.19757 0 -0.0689773 0.17035 0 -0.0614578 0.195283 0 -0.068238 0.172697 0 -0.0625569 0.191479 0 -0.0670303 0.176577 0 -0.063976 0.186655 0 -0.0655377 0.181453 0 -0.0636136 0.210019 0 -0.0716597 0.181076 0 -0.0642537 0.207583 0 -0.0709303 0.183569 0 -0.0653335 0.203534 0 -0.0697391 0.18769 0 -0.0667296 0.198402 0 -0.0682676 0.192871 0 -0.0610659 0.198708 0 -0.0692232 0.171332 0 -0.0617167 0.196408 0 -0.0684851 0.173693 0 -0.0628137 0.192582 0 -0.0672793 0.177595 0 -0.0642303 0.18773 0 -0.0657892 0.182498 0 -0.0631785 0.208067 0 -0.0712409 0.179396 0 -0.0638203 0.205655 0 -0.0705103 0.181867 0 -0.0649027 0.201645 0 -0.0693171 0.18595 0 -0.0663019 0.196562 0 -0.067843 0.191083 0 -0.0614976 0.200605 0 -0.0696328 0.172967 0 -0.0621465 0.198282 0 -0.0688965 0.17535 0 -0.0632401 0.194419 0 -0.0676938 0.179289 0 -0.0646527 0.18952 0 -0.0662074 0.184239 0 -0.0626303 0.20562 0 -0.0707145 0.177289 0 -0.0632743 0.203238 0 -0.0699823 0.179731 0 -0.0643602 0.199276 0 -0.0687863 0.183767 0 -0.0657634 0.194253 0 -0.0673086 0.188839 0 -0.0620435 0.203015 0 -0.070153 0.175045 0 -0.06269 0.200664 0 -0.0694188 0.177456 0 -0.0637798 0.196753 0 -0.0682195 0.181441 0 -0.0651877 0.191795 0 -0.0667375 0.18645 0 -0.0533813 0.224312 0 -0.0603658 0.198123 0 -0.0539313 0.222122 0 -0.0597255 0.200393 0 -0.0548611 0.218476 0 -0.0586832 0.20414 0 -0.056067 0.213844 0 -0.0574011 0.20884 0 -0.0501397 0.209476 0 -0.0573464 0.185097 0 -0.0507093 0.207442 0 -0.0566873 0.187214 0 -0.051671 0.204053 0 -0.0556138 0.190708 0 -0.0529166 0.199745 0 -0.0542926 0.195087 0 -0.0531045 0.223014 0 -0.0601055 0.196985 0 -0.053656 0.220838 0 -0.0594639 0.199242 0 -0.0545882 0.217215 0 -0.0584194 0.202966 0 -0.0557972 0.212611 0 -0.0571344 0.207638 0 -0.0504149 0.210704 0 -0.0575996 0.186175 0 -0.0509827 0.208657 0 -0.0569424 0.188306 0 -0.0519415 0.205247 0 -0.0558722 0.19182 0 -0.0531832 0.200912 0 -0.054555 0.196225 0 -0.052646 0.220877 0 -0.059675 0.195109 0 -0.0532001 0.218724 0 -0.0590312 0.197344 0 -0.0541365 0.215137 0 -0.0579828 0.201032 0 -0.0553505 0.210581 0 -0.056693 0.205657 0 -0.0508715 0.212755 0 -0.0580212 0.187976 0 -0.0514364 0.210686 0 -0.0573671 0.190128 0 -0.0523903 0.207241 0 -0.0563019 0.193677 0 -0.0536258 0.202862 0 -0.054991 0.198127 0 -0.0520678 0.218205 0 -0.0591339 0.192763 0 -0.0526253 0.216079 0 -0.0584869 0.19497 0 -0.0535672 0.212539 0 -0.0574335 0.198613 0 -0.0547879 0.208041 0 -0.0561373 0.20318 0 -0.0514484 0.215369 0 -0.0585564 0.190272 0 -0.0520096 0.213273 0 -0.0579059 0.192451 0 -0.0529576 0.209782 0 -0.0568466 0.196045 0 -0.0541858 0.205346 0 -0.0555431 0.200551 0 -0.0567714 0.240606 0 -0.0635695 0.212388 0 -0.0573046 0.23824 0 -0.0629436 0.214828 0 -0.0582067 0.234302 0 -0.0619259 0.218857 0 -0.0593782 0.229307 0 -0.0606762 0.223915 0 -0.0535157 0.224944 0 -0.0604922 0.198677 0 -0.0540649 0.222747 0 -0.0598526 0.200954 0 -0.0549935 0.21909 0 -0.0588114 0.204712 0 -0.0561981 0.214444 0 -0.0575306 0.209425 0 -0.0564933 0.239245 0 -0.0633061 0.211198 0 -0.0570278 0.236893 0 -0.0626792 0.213624 0 -0.0579322 0.232981 0 -0.0616596 0.21763 0 -0.0591065 0.228016 0 -0.0604073 0.222657 0 -0.0537925 0.22625 0 -0.060753 0.199822 0 -0.0543403 0.224039 0 -0.0601147 0.202113 0 -0.0552666 0.220359 0 -0.0590756 0.205893 0 -0.0564681 0.215684 0 -0.0577977 0.210635 0 -0.0560328 0.236999 0 -0.0628701 0.209236 0 -0.0565696 0.234673 0 -0.0622414 0.211638 0 -0.0574776 0.230801 0 -0.0612186 0.215604 0 -0.0586565 0.225887 0 -0.0599622 0.220582 0 -0.0542514 0.228426 0 -0.0611857 0.20173 0 -0.0547969 0.226192 0 -0.0605495 0.204043 0 -0.0557193 0.222473 0 -0.0595139 0.207861 0 -0.0569161 0.217751 0 -0.0582406 0.21265 0 -0.0554525 0.234186 0 -0.0623208 0.206774 0 -0.055992 0.23189 0 -0.0616897 0.209147 0 -0.0569047 0.228068 0 -0.0606629 0.213065 0 -0.0580893 0.223218 0 -0.059401 0.21798 0 -0.0548307 0.231193 0 -0.0617329 0.204154 0 -0.0553733 0.228929 0 -0.0610992 0.206496 0 -0.056291 0.225161 0 -0.0600679 0.210361 0 -0.0574818 0.220377 0 -0.0588001 0.215211 0 -0.0817868 0.149927 0 -0.0915837 0.120011 0 -0.0826048 0.14738 0 -0.0907409 0.122557 0 -0.0839705 0.143157 0 -0.0893445 0.126778 0 -0.0857084 0.137826 0 -0.0875857 0.132108 0 -0.078968 0.140195 0 -0.0888121 0.112135 0 -0.0797926 0.137805 0 -0.0879674 0.114522 0 -0.0811678 0.133844 0 -0.0865671 0.11848 0 -0.0829159 0.128843 0 -0.0848021 0.123479 0 -0.0815399 0.149085 0 -0.0913377 0.119329 0 -0.0823582 0.146552 0 -0.090495 0.121861 0 -0.0837242 0.142351 0 -0.0890987 0.12606 0 -0.0854624 0.137049 0 -0.08734 0.131361 0 -0.0792005 0.141009 0 -0.0890371 0.112793 0 -0.0800243 0.138606 0 -0.0881928 0.115193 0 -0.0813982 0.134623 0 -0.0867934 0.119174 0 -0.0831448 0.129594 0 -0.0850295 0.124201 0 -0.0811332 0.147694 0 -0.0909336 0.118203 0 -0.0819521 0.145183 0 -0.090091 0.120712 0 -0.0833189 0.14102 0 -0.0886947 0.124874 0 -0.0850578 0.135765 0 -0.0869358 0.130128 0 -0.0795893 0.142365 0 -0.0894149 0.11389 0 -0.0804118 0.13994 0 -0.0885713 0.116312 0 -0.0817837 0.13592 0 -0.087173 0.12033 0 -0.0835281 0.130845 0 -0.0854108 0.125403 0 -0.0806247 0.145948 0 -0.0904305 0.116789 0 -0.0814446 0.143465 0 -0.0895878 0.11927 0 -0.0828126 0.139349 0 -0.0881913 0.123384 0 -0.0845528 0.134153 0 -0.0864318 0.128579 0 -0.0800857 0.144087 0 -0.0899002 0.115283 0 -0.0809067 0.141635 0 -0.0890572 0.117734 0 -0.0822766 0.137569 0 -0.0876599 0.121798 0 -0.0840187 0.132435 0 -0.0858993 0.12693 0 -0.0692202 0.168736 0 -0.0784569 0.140957 0 -0.0699715 0.166388 0 -0.0776388 0.143338 0 -0.0712328 0.162488 0 -0.0762942 0.147278 0 -0.0728515 0.157551 0 -0.074619 0.152242 0 -0.066445 0.157636 0 -0.0758779 0.131635 0 -0.0672146 0.155439 0 -0.0750447 0.133864 0 -0.0685055 0.151789 0 -0.0736744 0.137553 0 -0.0701606 0.147169 0 -0.0719656 0.142199 0 -0.0689765 0.167766 0 -0.0782264 0.140141 0 -0.069729 0.165431 0 -0.0774072 0.142509 0 -0.0709923 0.161552 0 -0.076061 0.146428 0 -0.0726135 0.156644 0 -0.0743836 0.151364 0 -0.066673 0.158555 0 -0.0760853 0.132405 0 -0.0674407 0.156345 0 -0.0752537 0.134646 0 -0.0687285 0.152674 0 -0.0738861 0.138357 0 -0.0703798 0.148028 0 -0.0721809 0.14303 0 -0.0685752 0.166168 0 -0.0778482 0.138797 0 -0.0693299 0.163854 0 -0.0770273 0.141143 0 -0.0705967 0.160012 0 -0.0756781 0.145026 0 -0.0722222 0.155148 0 -0.0739967 0.149917 0 -0.0670548 0.160089 0 -0.0764345 0.133692 0 -0.0678195 0.157858 0 -0.0756055 0.135954 0 -0.0691024 0.154153 0 -0.0742422 0.1397 0 -0.0707477 0.149463 0 -0.0725426 0.144417 0 -0.0680738 0.164168 0 -0.0773785 0.137117 0 -0.0688315 0.161882 0 -0.0765552 0.139435 0 -0.0701031 0.158084 0 -0.0752018 0.143273 0 -0.0717345 0.153277 0 -0.0735151 0.148107 0 -0.0675429 0.162045 0 -0.0768847 0.135334 0 -0.0683041 0.159788 0 -0.0760586 0.137623 0 -0.0695813 0.156038 0 -0.0747004 0.141413 0 -0.0712196 0.151292 0 -0.0730073 0.146187 0 -0.0722695 0.180874 0 -0.0813915 0.151163 0 -0.0730098 0.178361 0 -0.0805811 0.153708 0 -0.074253 0.174187 0 -0.0792505 0.157921 0 -0.0758496 0.168906 0 -0.0775947 0.163228 0 -0.0693389 0.169208 0 -0.0785694 0.141354 0 -0.0700896 0.166854 0 -0.0777517 0.143741 0 -0.0713499 0.162943 0 -0.0764079 0.147693 0 -0.0729675 0.157993 0 -0.0747338 0.152669 0 -0.0720166 0.179864 0 -0.0811445 0.150314 0 -0.0727575 0.177364 0 -0.0803337 0.152846 0 -0.0740017 0.173213 0 -0.0790025 0.157036 0 -0.0755995 0.167962 0 -0.0773458 0.162314 0 -0.0695842 0.170184 0 -0.0788023 0.142175 0 -0.0703338 0.167816 0 -0.0779856 0.144575 0 -0.0715922 0.163883 0 -0.0766433 0.148548 0 -0.0732075 0.158906 0 -0.0749714 0.153553 0 -0.0715983 0.178196 0 -0.0807375 0.148912 0 -0.0723404 0.175719 0 -0.0799261 0.151421 0 -0.0735865 0.171606 0 -0.0785936 0.155574 0 -0.0751866 0.166401 0 -0.076935 0.160805 0 -0.069993 0.171809 0 -0.0791917 0.143541 0 -0.0707407 0.169419 0 -0.0783764 0.145964 0 -0.0719962 0.16545 0 -0.0770366 0.149973 0 -0.0736078 0.160427 0 -0.0753679 0.155024 0 -0.0710727 0.176102 0 -0.0802285 0.147152 0 -0.0718164 0.173654 0 -0.0794161 0.149633 0 -0.0730652 0.169588 0 -0.0780816 0.153739 0 -0.0746685 0.164443 0 -0.0764202 0.15891 0 -0.0705122 0.173873 0 -0.0796888 0.145277 0 -0.0712578 0.171455 0 -0.078875 0.147728 0 -0.0725099 0.167439 0 -0.077538 0.151784 0 -0.0741173 0.162358 0 -0.0758731 0.156892 0 -0.0966975 0.0760894 0 -0.104967 0.0508775 0 -0.0974736 0.0739147 0 -0.104347 0.0529974 0 -0.0987353 0.0703216 0 -0.10328 0.0565222 0 -0.100279 0.0658072 0 -0.101868 0.0609903 0 -0.0948592 0.0711939 0 -0.10311 0.04764 0 -0.0956375 0.0691631 0 -0.102495 0.0496217 0 -0.0969011 0.0658075 0 -0.101435 0.0529161 0 -0.0984444 0.061591 0 -0.100029 0.0570912 0 -0.0965203 0.0756452 0 -0.10479 0.0505808 0 -0.0972966 0.0734831 0 -0.10417 0.0526883 0 -0.0985586 0.069911 0 -0.103103 0.0561924 0 -0.100103 0.0654231 0 -0.101692 0.0606344 0 -0.0949943 0.0715798 0 -0.103249 0.0478919 0 -0.0957726 0.0695372 0 -0.102633 0.0498846 0 -0.0970363 0.0661623 0 -0.101573 0.0531975 0 -0.0985802 0.0619216 0 -0.100166 0.0573961 0 -0.0962348 0.0749186 0 -0.104504 0.0500965 0 -0.0970116 0.0727775 0 -0.103884 0.0521837 0 -0.098274 0.0692399 0 -0.102818 0.055654 0 -0.0998184 0.0647954 0 -0.101407 0.060053 0 -0.0952275 0.0722336 0 -0.103488 0.0483202 0 -0.0960056 0.0701713 0 -0.102871 0.0503316 0 -0.0972694 0.0667639 0 -0.101809 0.0536756 0 -0.0988137 0.0624826 0 -0.100401 0.057914 0 -0.0958893 0.0740205 0 -0.104157 0.0494997 0 -0.0966666 0.0719054 0 -0.103538 0.0515616 0 -0.0979296 0.0684109 0 -0.102473 0.0549899 0 -0.0994742 0.0640204 0 -0.101063 0.0593356 0 -0.0955375 0.0730825 0 -0.103802 0.0488791 0 -0.0963153 0.070995 0 -0.103185 0.0509146 0 -0.0975789 0.0675459 0 -0.102121 0.0542988 0 -0.0991235 0.0632124 0 -0.100711 0.0585883 0 -0.0845963 0.0960536 0 -0.0944133 0.0719935 0 -0.0854627 0.0939886 0 -0.0936189 0.0740248 0 -0.0868908 0.0905717 0 -0.0922808 0.0773997 0 -0.0886744 0.0862706 0 -0.0905581 0.0816724 0 -0.0833335 0.090587 0 -0.0931795 0.0680855 0 -0.0842101 0.0886582 0 -0.09239 0.0699884 0 -0.0856517 0.085466 0 -0.0910571 0.0731484 0 -0.0874467 0.0814463 0 -0.0893357 0.0771464 0 -0.0844604 0.0955324 0 -0.0942844 0.0716122 0 -0.085328 0.0934794 0 -0.0934899 0.0736318 0 -0.0867577 0.0900826 0 -0.0921515 0.0769872 0 -0.088543 0.0858066 0 -0.090428 0.0812351 0 -0.0834103 0.0909875 0 -0.0932601 0.0683617 0 -0.0842865 0.0890477 0 -0.0924695 0.0702748 0 -0.0857276 0.0858374 0 -0.0911352 0.0734516 0 -0.0875227 0.0817951 0 -0.0894124 0.0774714 0 -0.084246 0.0946878 0 -0.0940803 0.070997 0 -0.0851154 0.0926547 0 -0.0932858 0.0729976 0 -0.0865476 0.0892907 0 -0.0919471 0.0763211 0 -0.0883355 0.0850559 0 -0.0902225 0.0805284 0 -0.0835512 0.0916817 0 -0.093404 0.068846 0 -0.0844264 0.0897234 0 -0.0926119 0.0707761 0 -0.0858664 0.0864826 0 -0.0912757 0.0739816 0 -0.087661 0.0824021 0 -0.0895513 0.0780382 0 -0.0839952 0.0936595 0 -0.0938398 0.0702534 0 -0.0848667 0.0916511 0 -0.0930457 0.0722304 0 -0.086302 0.088328 0 -0.091707 0.0755144 0 -0.0880928 0.0841445 0 -0.0899817 0.0796714 0 -0.0837522 0.0926083 0 -0.0936036 0.069501 0 -0.0846258 0.0906261 0 -0.0928103 0.0714533 0 -0.0860638 0.087346 0 -0.0914725 0.0746962 0 -0.087857 0.0832164 0 -0.0897471 0.0788005 0 -0.0866004 0.102988 0 -0.0963171 0.0771467 0 -0.0874532 0.10077 0 -0.0955262 0.0793283 0 -0.0888607 0.0971004 0 -0.094196 0.0829529 0 -0.0906223 0.0924808 0 -0.0924868 0.087542 0 -0.0846639 0.0963096 0 -0.0944774 0.0721811 0 -0.0855298 0.0942386 0 -0.0936831 0.0742182 0 -0.086957 0.090812 0 -0.0923452 0.0776026 0 -0.0887398 0.0864987 0 -0.0906228 0.0818873 0 -0.086415 0.102388 0 -0.0961398 0.0766962 0 -0.0872689 0.100183 0 -0.0953485 0.0788651 0 -0.088678 0.0965341 0 -0.0940176 0.0824686 0 -0.0904412 0.0919412 0 -0.0923073 0.087031 0 -0.0848066 0.0968426 0 -0.0946126 0.0725727 0 -0.0856714 0.0947595 0 -0.0938184 0.0746217 0 -0.0870969 0.0913127 0 -0.092481 0.0780258 0 -0.088878 0.086974 0 -0.0907596 0.0823356 0 -0.0861155 0.101404 0 -0.095854 0.0759596 0 -0.0869712 0.0992201 0 -0.0950622 0.0781075 0 -0.0883829 0.0956065 0 -0.0937301 0.0816763 0 -0.0901491 0.0910577 0 -0.0920178 0.0861947 0 -0.085053 0.0977423 0 -0.0948459 0.0732361 0 -0.0859159 0.0956389 0 -0.094052 0.0753049 0 -0.0873386 0.0921584 0 -0.0927155 0.078742 0 -0.0891166 0.0877774 0 -0.0909957 0.0830938 0 -0.0857519 0.100184 0 -0.0955082 0.0750488 0 -0.0866098 0.0980268 0 -0.0947157 0.0771706 0 -0.0880251 0.094457 0 -0.093382 0.0806959 0 -0.0897951 0.0899633 0 -0.0916672 0.0851594 0 -0.0853807 0.0989053 0 -0.0951561 0.0740974 0 -0.0862412 0.0967759 0 -0.0943629 0.0761915 0 -0.0876603 0.0932526 0 -0.0930276 0.0796709 0 -0.0894344 0.0888175 0 -0.0913102 0.0840762 0 -0.10202 0.0878915 0 -0.110348 0.0588587 0 -0.102797 0.0853905 0 -0.109719 0.0613033 0 -0.104061 0.0812571 0 -0.108639 0.0653665 0 -0.105613 0.0760615 0 -0.107213 0.0705147 0 -0.0992456 0.0820425 0 -0.107526 0.0548862 0 -0.10002 0.0797014 0 -0.106903 0.0571707 0 -0.10128 0.0758327 0 -0.105832 0.0609689 0 -0.102824 0.0709712 0 -0.104416 0.0657827 0 -0.10177 0.0873843 0 -0.110092 0.0585138 0 -0.102546 0.0848972 0 -0.109464 0.0609446 0 -0.10381 0.0807866 0 -0.108385 0.0649848 0 -0.10536 0.0756199 0 -0.10696 0.0701041 0 -0.0994675 0.0825304 0 -0.10775 0.0552167 0 -0.100242 0.0801759 0 -0.107127 0.0575147 0 -0.101502 0.076285 0 -0.106055 0.061335 0 -0.103046 0.0713954 0 -0.104638 0.0661769 0 -0.101361 0.0865469 0 -0.109673 0.0579444 0 -0.102137 0.0840826 0 -0.109046 0.0603523 0 -0.1034 0.0800098 0 -0.107969 0.0643547 0 -0.104948 0.0748908 0 -0.106546 0.0694261 0 -0.0998415 0.0833437 0 -0.108128 0.0557683 0 -0.100616 0.0809669 0 -0.107505 0.0580885 0 -0.101876 0.077039 0 -0.106432 0.0619458 0 -0.103421 0.0721028 0 -0.105014 0.0668343 0 -0.100855 0.0854964 0 -0.109157 0.0572302 0 -0.10163 0.0830607 0 -0.108531 0.0596094 0 -0.102892 0.0790354 0 -0.107455 0.0635642 0 -0.104439 0.0739762 0 -0.106034 0.0685758 0 -0.100324 0.084378 0 -0.108618 0.0564704 0 -0.101099 0.0819729 0 -0.107993 0.058819 0 -0.10236 0.0779981 0 -0.106919 0.0627232 0 -0.103906 0.0730027 0 -0.1055 0.0676708 0 -0.0891136 0.110661 0 -0.0987596 0.0829414 0 -0.0899571 0.108284 0 -0.0979714 0.085283 0 -0.0913505 0.104349 0 -0.096647 0.0891729 0 -0.0930965 0.0993947 0 -0.0949476 0.0940968 0 -0.0866916 0.103281 0 -0.0964045 0.0773668 0 -0.0875439 0.101057 0 -0.0956138 0.0795546 0 -0.0889507 0.097377 0 -0.0942839 0.0831895 0 -0.0907114 0.0927444 0 -0.0925752 0.0877916 0 -0.0888925 0.110014 0 -0.098542 0.0824505 0 -0.0897365 0.107649 0 -0.0977537 0.0847788 0 -0.0911306 0.103737 0 -0.0964291 0.0886465 0 -0.0928775 0.0988104 0 -0.0947292 0.0935424 0 -0.0868819 0.103888 0 -0.0965872 0.0778233 0 -0.0877332 0.101652 0 -0.0957968 0.0800239 0 -0.0891385 0.0979501 0 -0.0944676 0.0836801 0 -0.0908976 0.0932906 0 -0.09276 0.088309 0 -0.0885317 0.108947 0 -0.098188 0.0816427 0 -0.0893766 0.106605 0 -0.0973995 0.0839488 0 -0.0907721 0.102729 0 -0.0960744 0.0877801 0 -0.0925205 0.0978484 0 -0.0943736 0.0926299 0 -0.0872043 0.104905 0 -0.0968977 0.0785882 0 -0.0880541 0.102646 0 -0.0961078 0.0808102 0 -0.089457 0.0989094 0 -0.0947796 0.0845018 0 -0.0912135 0.0942051 0 -0.0930737 0.0891755 0 -0.0880867 0.107615 0 -0.0977534 0.0806342 0 -0.088933 0.1053 0 -0.0969646 0.0829128 0 -0.0903307 0.101469 0 -0.0956386 0.0866982 0 -0.0920814 0.0966468 0 -0.0939364 0.0914902 0 -0.0876232 0.106203 0 -0.0973028 0.0795676 0 -0.0884712 0.103918 0 -0.0965135 0.0818168 0 -0.0898714 0.100136 0 -0.0951865 0.0855534 0 -0.091625 0.0953746 0 -0.0934825 0.090284 0 -0.0919926 0.118776 0 -0.101639 0.0891071 0 -0.0928344 0.116233 0 -0.100849 0.091615 0 -0.0942256 0.112024 0 -0.0995226 0.0957805 0 -0.0959703 0.106722 0 -0.0978215 0.101052 0 -0.0892219 0.110977 0 -0.0988663 0.0831806 0 -0.0900651 0.108593 0 -0.0980781 0.0855287 0 -0.0914581 0.104647 0 -0.0967538 0.0894294 0 -0.0932038 0.0996793 0 -0.0950546 0.0943668 0 -0.0917465 0.118101 0 -0.10139 0.0885932 0 -0.0925881 0.115571 0 -0.1006 0.0910874 0 -0.093979 0.111385 0 -0.099274 0.09523 0 -0.0957232 0.106112 0 -0.0975736 0.100473 0 -0.0894466 0.111628 0 -0.0990882 0.083675 0 -0.0902894 0.109231 0 -0.0983001 0.0860365 0 -0.0916818 0.105263 0 -0.096976 0.0899594 0 -0.0934269 0.100268 0 -0.0952771 0.094925 0 -0.0913423 0.116986 0 -0.100981 0.0877448 0 -0.0921838 0.114479 0 -0.100192 0.0902161 0 -0.0935743 0.11033 0 -0.0988668 0.0943211 0 -0.0953179 0.105105 0 -0.0971675 0.0995162 0 -0.0898242 0.112714 0 -0.0994622 0.0844991 0 -0.0906664 0.110295 0 -0.0986741 0.086883 0 -0.0920579 0.10629 0 -0.0973501 0.090843 0 -0.0938021 0.101248 0 -0.0956516 0.0958552 0 -0.0908393 0.115586 0 -0.100475 0.0866803 0 -0.0916808 0.113107 0 -0.0996866 0.0891231 0 -0.0930713 0.109006 0 -0.0983621 0.0931806 0 -0.0948145 0.10384 0 -0.0966635 0.0983159 0 -0.0903092 0.114095 0 -0.0999448 0.0855472 0 -0.0911509 0.111647 0 -0.0991565 0.0879594 0 -0.0925417 0.107595 0 -0.0978325 0.0919662 0 -0.0942852 0.102494 0 -0.0961342 0.0970377 0 -0.116496 0.0282531 0 -0.118449 0.000569228 0 -0.116812 0.0258775 0 -0.118435 0.00291545 0 -0.117276 0.0219499 0 -0.11835 0.00680653 0 -0.117753 0.0170083 0 -0.118128 0.0117235 0 -0.1136 0.0263192 0 -0.115518 0.000529706 0 -0.113912 0.0241043 0 -0.115509 0.0027133 0 -0.114371 0.020443 0 -0.115428 0.00633558 0 -0.114842 0.0158377 0 -0.115212 0.0109144 0 -0.116232 0.0280847 0 -0.118181 0.000565787 0 -0.116547 0.0257231 0 -0.118168 0.00289785 0 -0.117011 0.0218187 0 -0.118083 0.00676551 0 -0.117487 0.0169063 0 -0.117862 0.011653 0 -0.113829 0.0264796 0 -0.115749 0.00053298 0 -0.114142 0.0242514 0 -0.11574 0.00273004 0 -0.1146 0.020568 0 -0.115659 0.0063746 0 -0.115072 0.0159348 0 -0.115442 0.0109815 0 -0.115801 0.027807 0 -0.117744 0.000560107 0 -0.116116 0.0254684 0 -0.117732 0.00286879 0 -0.116578 0.0216022 0 -0.117647 0.00669783 0 -0.117054 0.0167381 0 -0.117428 0.0115367 0 -0.114216 0.0267476 0 -0.11614 0.00053845 0 -0.114529 0.024497 0 -0.11613 0.00275802 0 -0.114988 0.0207767 0 -0.116048 0.00643979 0 -0.115461 0.0160969 0 -0.115832 0.0110935 0 -0.11527 0.0274589 0 -0.117207 0.000552989 0 -0.115585 0.0251492 0 -0.117195 0.00283239 0 -0.116046 0.0213309 0 -0.117112 0.00661302 0 -0.11652 0.0165274 0 -0.116893 0.011391 0 -0.114717 0.027089 0 -0.116647 0.000545426 0 -0.115031 0.0248101 0 -0.116636 0.0027937 0 -0.115491 0.0210427 0 -0.116554 0.00652291 0 -0.115964 0.0163035 0 -0.116336 0.0112363 0 -0.107714 0.0536227 0 -0.113329 0.0273151 0 -0.108309 0.0513531 0 -0.112978 0.02953 0 -0.109251 0.0476046 0 -0.11234 0.0332104 0 -0.110358 0.0428964 0 -0.111438 0.0378725 0 -0.105349 0.0499928 0 -0.110921 0.025454 0 -0.10594 0.047875 0 -0.110573 0.0275193 0 -0.106877 0.0443776 0 -0.109941 0.0309511 0 -0.107976 0.0399852 0 -0.109048 0.0352991 0 -0.107495 0.0533013 0 -0.113105 0.0271497 0 -0.108089 0.051045 0 -0.112754 0.0293513 0 -0.10903 0.0473186 0 -0.112117 0.0330097 0 -0.110137 0.0426382 0 -0.111216 0.0376441 0 -0.105531 0.0502881 0 -0.111107 0.0256046 0 -0.106123 0.0481578 0 -0.11076 0.027682 0 -0.10706 0.0446398 0 -0.110127 0.0311342 0 -0.108161 0.0402215 0 -0.109233 0.0355078 0 -0.107138 0.052773 0 -0.112742 0.0268779 0 -0.107732 0.0505387 0 -0.112392 0.0290578 0 -0.108672 0.0468486 0 -0.111755 0.03268 0 -0.109777 0.0422139 0 -0.110856 0.0372688 0 -0.105842 0.0507838 0 -0.111424 0.0258579 0 -0.106435 0.0486327 0 -0.111076 0.0279557 0 -0.107372 0.0450801 0 -0.110443 0.0314418 0 -0.108474 0.0406184 0 -0.109547 0.0358584 0 -0.106701 0.0521147 0 -0.112298 0.0265398 0 -0.107294 0.0499078 0 -0.111948 0.0286925 0 -0.108234 0.0462631 0 -0.111312 0.0322697 0 -0.109338 0.0416855 0 -0.110414 0.0368016 0 -0.106249 0.0514201 0 -0.111838 0.0261835 0 -0.106841 0.0492422 0 -0.111489 0.0283076 0 -0.10778 0.0456455 0 -0.110854 0.0318372 0 -0.108882 0.0411283 0 -0.109958 0.036309 0 -0.110646 0.0576741 0 -0.116333 0.0294076 0 -0.111247 0.0552379 0 -0.115977 0.0317896 0 -0.1122 0.0512132 0 -0.115329 0.0357468 0 -0.113321 0.0461562 0 -0.114415 0.0407581 0 -0.107822 0.0537793 0 -0.113439 0.0273958 0 -0.108417 0.0515033 0 -0.113087 0.0296172 0 -0.109359 0.0477441 0 -0.112449 0.0333082 0 -0.110466 0.0430223 0 -0.111547 0.0379839 0 -0.11039 0.057336 0 -0.116069 0.0292325 0 -0.11099 0.0549136 0 -0.115713 0.0316006 0 -0.111942 0.0509119 0 -0.115067 0.0355346 0 -0.113061 0.0458838 0 -0.114154 0.0405168 0 -0.108046 0.0541034 0 -0.113668 0.0275628 0 -0.108641 0.051814 0 -0.113316 0.0297975 0 -0.109584 0.0480326 0 -0.112677 0.0335107 0 -0.110692 0.0432828 0 -0.111774 0.0382144 0 -0.109971 0.0567777 0 -0.115639 0.0289436 0 -0.11057 0.0543782 0 -0.115284 0.0312886 0 -0.11152 0.0504144 0 -0.114639 0.0351846 0 -0.112637 0.0454343 0 -0.113728 0.0401188 0 -0.108425 0.0546441 0 -0.114054 0.0278415 0 -0.10902 0.0523324 0 -0.113702 0.0300986 0 -0.109965 0.048514 0 -0.113062 0.0338487 0 -0.111074 0.0437175 0 -0.112158 0.0385991 0 -0.109454 0.0560774 0 -0.115108 0.0285815 0 -0.110052 0.0537067 0 -0.114754 0.0308977 0 -0.111 0.0497905 0 -0.114111 0.0347458 0 -0.112114 0.0448706 0 -0.113203 0.0396197 0 -0.108914 0.0553325 0 -0.114555 0.0281967 0 -0.109511 0.0529923 0 -0.114202 0.0304821 0 -0.110457 0.049127 0 -0.11356 0.0342794 0 -0.111569 0.0442712 0 -0.112654 0.039089 0 -0.00341089 0.270676 0 -0.00655032 0.264917 0 -0.00367608 0.270334 0 -0.00627538 0.265561 0 -0.00411448 0.269708 0 -0.00582487 0.266563 0 -0.0046676 0.268811 0 -0.00526359 0.267714 0 -0.00485112 0.270126 0 -0.0090955 0.265412 0 -0.00522112 0.269852 0 -0.00873532 0.265948 0 -0.00582816 0.269348 0 -0.00814061 0.266778 0 -0.00658569 0.268621 0 -0.00739148 0.267725 0 -0.00352278 0.270617 0 -0.00673997 0.264938 0 -0.00379572 0.270281 0 -0.00645941 0.265573 0 -0.00424646 0.269664 0 -0.00599923 0.266563 0 -0.00481429 0.26878 0 -0.00542505 0.267699 0 -0.00471052 0.27017 0 -0.00883493 0.265354 0 -0.00506966 0.26989 0 -0.00848443 0.2659 0 -0.005659 0.269374 0 -0.00790594 0.266748 0 -0.0063947 0.268631 0 -0.00717765 0.267715 0 -0.00370992 0.270529 0 -0.00705909 0.264983 0 -0.0039959 0.270201 0 -0.00676885 0.265605 0 -0.00446743 0.2696 0 -0.00629206 0.266573 0 -0.00506008 0.268739 0 -0.00569588 0.267683 0 -0.00448759 0.270242 0 -0.00842746 0.265261 0 -0.00482982 0.269951 0 -0.00809171 0.265825 0 -0.00539171 0.269416 0 -0.00753798 0.2667 0 -0.0060937 0.268647 0 -0.00684155 0.2677 0 -0.00395162 0.270429 0 -0.00747622 0.265057 0 -0.00425468 0.270112 0 -0.00717279 0.265661 0 -0.00475349 0.269532 0 -0.00667359 0.266601 0 -0.0053789 0.268699 0 -0.00604795 0.267677 0 -0.00422169 0.27033 0 -0.00795062 0.265155 0 -0.00454423 0.270027 0 -0.00763147 0.265739 0 -0.00507432 0.26947 0 -0.00710566 0.266646 0 -0.00573757 0.268669 0 -0.00644537 0.267684 0 -9.92257e-05 0.27168 0 -0.00473777 0.270227 0 -0.000506952 0.271669 0 -0.00435746 0.270465 0 -0.00117831 0.271604 0 -0.00372026 0.270812 0 -0.00201698 0.271442 0 -0.00290469 0.271166 0 -0.000148721 0.269575 0 -0.00744355 0.26863 0 -0.000762535 0.269566 0 -0.00681536 0.268783 0 -0.00178316 0.269521 0 -0.00577678 0.269007 0 -0.00307682 0.269415 0 -0.00447096 0.269236 0 -0.000102028 0.271589 0 -0.00488102 0.270175 0 -0.00052139 0.271577 0 -0.00448879 0.270407 0 -0.00121231 0.271515 0 -0.00383168 0.270745 0 -0.00207602 0.271357 0 -0.00299082 0.271089 0 -0.000142329 0.269893 0 -0.00708143 0.268903 0 -0.000729518 0.269884 0 -0.00648822 0.269065 0 -0.00170489 0.269838 0 -0.0055053 0.2693 0 -0.00293908 0.269727 0 -0.00426597 0.26954 0 -0.00010696 0.271421 0 -0.0051373 0.270075 0 -0.000546831 0.27141 0 -0.00472332 0.270296 0 -0.00127231 0.27135 0 -0.00403008 0.270618 0 -0.00218048 0.2712 0 -0.0031437 0.270945 0 -0.00013292 0.270344 0 -0.00655236 0.269279 0 -0.000680912 0.270334 0 -0.00600963 0.269454 0 -0.00158968 0.270286 0 -0.00510738 0.269708 0 -0.0027365 0.270167 0 -0.00396493 0.269966 0 -0.000113969 0.271161 0 -0.00550995 0.269904 0 -0.000583015 0.27115 0 -0.00506332 0.270111 0 -0.00135783 0.271094 0 -0.00431641 0.270412 0 -0.00232984 0.270955 0 -0.00336325 0.270717 0 -0.000122883 0.270795 0 -0.00599526 0.269636 0 -0.000629056 0.270785 0 -0.00550459 0.269827 0 -0.00146682 0.270733 0 -0.00468612 0.270105 0 -0.00252077 0.270604 0 -0.00364519 0.270386 0 -6.89366e-05 0.272692 0 -0.00328189 0.270832 0 -0.000351696 0.272678 0 -0.00301544 0.271134 0 -0.000815883 0.272595 0 -0.00257161 0.271576 0 -0.0013944 0.272385 0 -0.00200689 0.272029 0 -9.78965e-05 0.271723 0 -0.00467039 0.270251 0 -0.000500107 0.271711 0 -0.00429563 0.270492 0 -0.00116221 0.271646 0 -0.00366774 0.270843 0 -0.00198906 0.271481 0 -0.00286402 0.271201 0 -7.12829e-05 0.272602 0 -0.00338993 0.270771 0 -0.000363676 0.272588 0 -0.00311538 0.271069 0 -0.000843672 0.272506 0 -0.00265765 0.271504 0 -0.00144177 0.2723 0 -0.00207464 0.27195 0 -9.52068e-05 0.271809 0 -0.00453511 0.270298 0 -0.000486266 0.271797 0 -0.00417141 0.270546 0 -0.00112969 0.27173 0 -0.0035621 0.270906 0 -0.00193274 0.271561 0 -0.00278211 0.271273 0 -7.51817e-05 0.27246 0 -0.0035706 0.270679 0 -0.000383596 0.272447 0 -0.00328243 0.270968 0 -0.000889928 0.272367 0 -0.00280136 0.271392 0 -0.0015207 0.272166 0 -0.00218769 0.271826 0 -9.08798e-05 0.271946 0 -0.00432049 0.270375 0 -0.000464025 0.271933 0 -0.0039741 0.270631 0 -0.00107753 0.271863 0 -0.00339395 0.271006 0 -0.00184265 0.271687 0 -0.0026514 0.271388 0 -8.01561e-05 0.27229 0 -0.00380385 0.270573 0 -0.00040904 0.272277 0 -0.00349791 0.270853 0 -0.00094912 0.2722 0 -0.00298645 0.271261 0 -0.00162194 0.272007 0 -0.002333 0.271679 0 -8.56157e-05 0.272113 0 -0.00406429 0.270469 0 -0.00043701 0.2721 0 -0.00373816 0.270737 0 -0.00101435 0.272026 0 -0.00319234 0.271128 0 -0.00173386 0.271841 0 -0.00249415 0.271528 0 -0.00158446 0.275192 0 -0.00365349 0.268305 0 -0.00173058 0.274773 0 -0.0034413 0.269051 0 -0.00198289 0.274007 0 -0.00310663 0.270226 0 -0.00232135 0.272915 0 -0.00271247 0.271594 0 -0.00214616 0.272077 0 -0.00446166 0.265479 0 -0.00232559 0.271678 0 -0.00424133 0.266203 0 -0.00262826 0.27095 0 -0.0038877 0.267337 0 -0.00302146 0.269912 0 -0.00346005 0.26865 0 -0.00160956 0.274852 0 -0.00368206 0.267972 0 -0.00175687 0.274433 0 -0.0034705 0.268719 0 -0.00201078 0.273668 0 -0.00313648 0.269893 0 -0.00235064 0.272578 0 -0.00274245 0.271259 0 -0.00207291 0.272266 0 -0.00434691 0.265624 0 -0.00224762 0.271865 0 -0.00412888 0.266352 0 -0.00254292 0.271131 0 -0.00377958 0.267492 0 -0.00292768 0.270085 0 -0.00335831 0.268814 0 -0.00165948 0.274318 0 -0.00374379 0.267457 0 -0.00180933 0.273901 0 -0.00353284 0.268203 0 -0.00206687 0.273139 0 -0.00319914 0.269375 0 -0.00241019 0.272053 0 -0.0028043 0.270738 0 -0.00196296 0.272611 0 -0.00417775 0.265905 0 -0.0021307 0.272205 0 -0.00396276 0.266639 0 -0.00241522 0.271464 0 -0.00361934 0.267789 0 -0.00278774 0.270406 0 -0.00320699 0.269123 0 -0.0017382 0.273699 0 -0.00384925 0.266874 0 -0.00189241 0.273285 0 -0.00363819 0.267617 0 -0.00215634 0.272527 0 -0.00330338 0.268784 0 -0.00250625 0.271448 0 -0.00290553 0.27014 0 -0.00184362 0.273103 0 -0.00399963 0.266331 0 -0.00200403 0.272693 0 -0.00378721 0.26707 0 -0.00227729 0.271942 0 -0.0034491 0.26823 0 -0.0026373 0.270873 0 -0.00304525 0.269576 0 -4.26548e-05 0.274313 0 -0.00209609 0.272172 0 -0.000217787 0.274301 0 -0.00191704 0.272523 0 -0.000506289 0.274211 0 -0.00162369 0.273036 0 -0.000868766 0.273971 0 -0.00125795 0.273561 0 -6.77973e-05 0.272737 0 -0.00322958 0.270863 0 -0.000345881 0.272722 0 -0.00296704 0.271167 0 -0.000802401 0.272639 0 -0.00252993 0.271613 0 -0.00137143 0.272428 0 -0.00197405 0.272069 0 -4.44294e-05 0.274128 0 -0.00217454 0.272002 0 -0.000226815 0.274115 0 -0.00198985 0.27235 0 -0.000527108 0.274025 0 -0.00168673 0.272859 0 -0.000903993 0.273787 0 -0.00130795 0.27338 0 -6.54503e-05 0.272832 0 -0.00312206 0.27093 0 -0.000333906 0.272818 0 -0.00286756 0.27124 0 -0.000774648 0.272734 0 -0.00244425 0.271692 0 -0.00132418 0.272519 0 -0.00190653 0.272155 0 -4.75828e-05 0.273846 0 -0.0023147 0.27175 0 -0.000242863 0.273833 0 -0.00211986 0.272093 0 -0.000564134 0.273743 0 -0.00179917 0.272594 0 -0.000966693 0.273508 0 -0.00139703 0.273107 0 -6.15832e-05 0.273002 0 -0.00294565 0.271055 0 -0.000314182 0.272988 0 -0.0027043 0.271372 0 -0.000728975 0.272902 0 -0.00230356 0.271835 0 -0.00124648 0.272682 0 -0.00179559 0.27231 0 -5.18824e-05 0.273533 0 -0.0025071 0.27148 0 -0.000264752 0.273519 0 -0.00229819 0.271814 0 -0.000614678 0.27343 0 -0.00195323 0.272304 0 -0.00105237 0.273199 0 -0.00151892 0.272806 0 -5.68007e-05 0.27324 0 -0.00272872 0.27124 0 -0.000289806 0.273226 0 -0.00250347 0.271565 0 -0.00067258 0.273138 0 -0.00213039 0.272042 0 -0.00115065 0.272913 0 -0.00165891 0.27253 0 -2.90285e-05 0.277603 0 -0.00151508 0.275384 0 -0.000148568 0.277598 0 -0.00137509 0.275755 0 -0.000347152 0.277514 0 -0.00115104 0.276295 0 -0.000600816 0.277272 0 -0.000880183 0.276846 0 -4.18317e-05 0.274408 0 -0.00205983 0.272259 0 -0.0002136 0.274396 0 -0.00188337 0.272611 0 -0.000496638 0.274305 0 -0.00159451 0.273127 0 -0.000852443 0.274065 0 -0.0012348 0.273654 0 -2.96445e-05 0.277263 0 -0.00153955 0.275043 0 -0.000151688 0.277257 0 -0.00139815 0.275413 0 -0.000354287 0.277172 0 -0.00117146 0.275953 0 -0.00061272 0.276929 0 -0.000896751 0.276503 0 -4.0217e-05 0.274612 0 -0.00198895 0.27245 0 -0.000205388 0.2746 0 -0.00181751 0.272805 0 -0.000477712 0.27451 0 -0.00153742 0.273324 0 -0.000820451 0.274269 0 -0.00118945 0.273854 0 -3.08411e-05 0.276726 0 -0.00158813 0.274509 0 -0.000157755 0.27672 0 -0.00144378 0.274878 0 -0.000368181 0.276633 0 -0.00121166 0.275416 0 -0.000635965 0.27639 0 -0.00092923 0.275964 0 -3.77749e-05 0.274978 0 -0.0018825 0.272797 0 -0.000192972 0.274967 0 -0.00171853 0.273156 0 -0.000449115 0.274877 0 -0.00145148 0.27368 0 -0.000772158 0.274635 0 -0.00112109 0.274217 0 -3.26813e-05 0.2761 0 -0.00166461 0.273889 0 -0.000167094 0.276092 0 -0.00151538 0.274255 0 -0.000389607 0.276003 0 -0.00127444 0.27479 0 -0.000671919 0.27576 0 -0.000979682 0.275336 0 -3.5092e-05 0.275489 0 -0.00176687 0.273291 0 -0.000179337 0.27548 0 -0.00161083 0.273654 0 -0.000417742 0.27539 0 -0.00135777 0.274184 0 -0.000719258 0.275147 0 -0.00104636 0.274726 0 -0.0071236 0.256614 0 -0.0117812 0.2431 0 -0.00746391 0.255545 0 -0.0113279 0.244319 0 -0.00805098 0.253735 0 -0.0106 0.246318 0 -0.00883294 0.251386 0 -0.00972266 0.248794 0 -0.00782265 0.253884 0 -0.0120703 0.239994 0 -0.00813851 0.252802 0 -0.0116614 0.241263 0 -0.00868038 0.250962 0 -0.0110035 0.243338 0 -0.00939733 0.248561 0 -0.010208 0.245897 0 -0.00712944 0.256267 0 -0.0117464 0.242703 0 -0.00746692 0.255196 0 -0.0112971 0.243928 0 -0.008049 0.25338 0 -0.0105756 0.245936 0 -0.00882417 0.251024 0 -0.00970606 0.248422 0 -0.00770007 0.253994 0 -0.0119742 0.24011 0 -0.00801699 0.252911 0 -0.0115619 0.241378 0 -0.00856113 0.251069 0 -0.0108988 0.243449 0 -0.00928185 0.248669 0 -0.0100976 0.246006 0 -0.00715762 0.255737 0 -0.0117085 0.242094 0 -0.0074906 0.254661 0 -0.0112659 0.243328 0 -0.00806471 0.252838 0 -0.0105549 0.24535 0 -0.00882896 0.250469 0 -0.00969812 0.247853 0 -0.00752638 0.254229 0 -0.0118489 0.240371 0 -0.00784558 0.253146 0 -0.0114308 0.241633 0 -0.00839431 0.251304 0 -0.0107587 0.243698 0 -0.0091222 0.248906 0 -0.00994732 0.246248 0 -0.00722935 0.255147 0 -0.0117002 0.241416 0 -0.00755712 0.254067 0 -0.0112658 0.242662 0 -0.00812187 0.252236 0 -0.010568 0.2447 0 -0.00887307 0.249854 0 -0.0097268 0.247221 0 -0.00735625 0.254619 0 -0.0117469 0.240812 0 -0.00767916 0.253537 0 -0.0113211 0.242067 0 -0.00823497 0.251698 0 -0.0106369 0.24412 0 -0.00897337 0.249306 0 -0.00981163 0.246658 0 -0.00463041 0.265054 0 -0.00773702 0.254357 0 -0.00486017 0.264289 0 -0.00743368 0.255404 0 -0.00525378 0.262957 0 -0.00694833 0.257088 0 -0.00577465 0.261167 0 -0.00636539 0.259116 0 -0.00659185 0.264584 0 -0.0100613 0.254686 0 -0.00686827 0.263893 0 -0.00974369 0.255676 0 -0.0073331 0.262684 0 -0.00922755 0.257259 0 -0.00793262 0.261045 0 -0.00859332 0.25915 0 -0.00476097 0.264939 0 -0.00788044 0.254283 0 -0.00499319 0.264178 0 -0.00757739 0.255328 0 -0.00539032 0.262853 0 -0.00709193 0.257007 0 -0.00591465 0.261071 0 -0.00650786 0.259029 0 -0.00640143 0.264568 0 -0.00982385 0.25458 0 -0.00667269 0.263869 0 -0.00950897 0.255577 0 -0.00712938 0.262647 0 -0.0089979 0.257172 0 -0.00771944 0.260991 0 -0.00837106 0.25908 0 -0.00499733 0.264786 0 -0.00814626 0.254211 0 -0.00523438 0.264033 0 -0.00784306 0.255252 0 -0.00563857 0.262722 0 -0.00735638 0.256922 0 -0.00617014 0.260956 0 -0.00676901 0.25893 0 -0.00609037 0.264557 0 -0.00944075 0.254426 0 -0.00635344 0.263846 0 -0.00912974 0.255435 0 -0.00679731 0.262602 0 -0.00862609 0.257049 0 -0.00737263 0.260921 0 -0.00801034 0.258981 0 -0.00532652 0.264654 0 -0.00852641 0.254203 0 -0.00557087 0.263913 0 -0.00822193 0.255235 0 -0.00598598 0.262621 0 -0.00773183 0.25689 0 -0.0065292 0.26088 0 -0.00713789 0.258878 0 -0.00571061 0.264578 0 -0.00898119 0.254283 0 -0.0059641 0.263852 0 -0.00867398 0.255304 0 -0.00639316 0.262584 0 -0.00817795 0.256939 0 -0.00695175 0.260872 0 -0.00757406 0.2589 0 -0.00375938 0.267932 0 -0.00696222 0.257126 0 -0.00398369 0.267144 0 -0.00663747 0.258166 0 -0.00437402 0.265779 0 -0.00612189 0.259846 0 -0.00490087 0.263956 0 -0.00551031 0.261882 0 -0.00457059 0.265117 0 -0.00767234 0.254401 0 -0.00479929 0.264349 0 -0.00736876 0.25545 0 -0.0051914 0.263014 0 -0.00688328 0.257135 0 -0.00571085 0.26122 0 -0.00630066 0.259166 0 -0.00378759 0.2676 0 -0.00696938 0.256781 0 -0.004011 0.266811 0 -0.00664727 0.257824 0 -0.00439945 0.265446 0 -0.00613572 0.259507 0 -0.00492326 0.263622 0 -0.00552864 0.261546 0 -0.00445482 0.26526 0 -0.00754933 0.254512 0 -0.00468159 0.264489 0 -0.00724505 0.255562 0 -0.00507103 0.263148 0 -0.00675896 0.25725 0 -0.00558809 0.261347 0 -0.00617652 0.259287 0 -0.00384891 0.267085 0 -0.00699965 0.256252 0 -0.00407125 0.266298 0 -0.00668166 0.257298 0 -0.00445725 0.264933 0 -0.00617638 0.258986 0 -0.00497677 0.263108 0 -0.00557615 0.26103 0 -0.00428433 0.265539 0 -0.00737467 0.254748 0 -0.00450865 0.264762 0 -0.00706868 0.255799 0 -0.0048949 0.263413 0 -0.00658058 0.257491 0 -0.00540947 0.261603 0 -0.00599712 0.259534 0 -0.00395427 0.266503 0 -0.00707378 0.255664 0 -0.00417609 0.265717 0 -0.00676048 0.256714 0 -0.00456031 0.264355 0 -0.00626218 0.258406 0 -0.00507599 0.262531 0 -0.00566932 0.260452 0 -0.00410514 0.265962 0 -0.0072029 0.255138 0 -0.00432759 0.26518 0 -0.00689384 0.256189 0 -0.0047118 0.263823 0 -0.00640163 0.257883 0 -0.00522563 0.262005 0 -0.00581474 0.259929 0 -0.00174624 0.287265 0 -0.00425657 0.280705 0 -0.00191712 0.286863 0 -0.00399341 0.281409 0 -0.0022155 0.286127 0 -0.00357997 0.28252 0 -0.0026213 0.285081 0 -0.00309634 0.28382 0 -0.00152753 0.280636 0 -0.00373394 0.273829 0 -0.00167691 0.28022 0 -0.00350126 0.274562 0 -0.00193793 0.279459 0 -0.00313637 0.275718 0 -0.00229346 0.278376 0 -0.00271058 0.277068 0 -0.00172134 0.286648 0 -0.00420198 0.280063 0 -0.00188997 0.286244 0 -0.00394166 0.28077 0 -0.00218452 0.285506 0 -0.00353278 0.281885 0 -0.00258529 0.284456 0 -0.00305468 0.28319 0 -0.00153865 0.281146 0 -0.00376628 0.274355 0 -0.00168935 0.28073 0 -0.00353129 0.275086 0 -0.00195277 0.279971 0 -0.00316279 0.276239 0 -0.00231166 0.27889 0 -0.00273282 0.277586 0 -0.00168217 0.285646 0 -0.00411484 0.279021 0 -0.00184722 0.28524 0 -0.00385914 0.279732 0 -0.00213563 0.284497 0 -0.00345769 0.280855 0 -0.00252831 0.283442 0 -0.00298855 0.282168 0 -0.00156063 0.282014 0 -0.00382568 0.275252 0 -0.00171377 0.2816 0 -0.00358673 0.27598 0 -0.00198153 0.280843 0 -0.003212 0.277127 0 -0.00234644 0.279767 0 -0.00277473 0.278468 0 -0.00163692 0.284419 0 -0.00401155 0.277746 0 -0.00179771 0.28401 0 -0.00376152 0.278463 0 -0.00207882 0.283262 0 -0.00336915 0.279594 0 -0.00246176 0.282199 0 -0.00291094 0.280917 0 -0.00159425 0.28315 0 -0.00391021 0.27643 0 -0.00175088 0.282739 0 -0.00366603 0.277152 0 -0.00202474 0.281986 0 -0.00328301 0.278292 0 -0.00239796 0.280916 0 -0.00283595 0.279625 0 -2.67182e-05 0.282752 0 -0.0014526 0.280584 0 -0.000136999 0.282754 0 -0.00131209 0.280951 0 -0.000321355 0.28268 0 -0.00109007 0.281487 0 -0.000559589 0.282448 0 -0.000826383 0.282031 0 -2.87573e-05 0.277773 0 -0.00150446 0.275554 0 -0.000147194 0.277769 0 -0.00136506 0.275925 0 -0.000344015 0.277684 0 -0.00114214 0.276466 0 -0.000595592 0.277442 0 -0.000872932 0.277017 0 -2.66179e-05 0.282266 0 -0.0014446 0.280091 0 -0.000136471 0.282268 0 -0.00130511 0.28046 0 -0.000320058 0.282193 0 -0.0010846 0.280997 0 -0.000557173 0.28196 0 -0.00082253 0.281542 0 -2.82538e-05 0.278133 0 -0.00148509 0.275915 0 -0.000144646 0.278129 0 -0.00134672 0.276286 0 -0.000338203 0.278045 0 -0.00112579 0.276827 0 -0.000585935 0.277804 0 -0.000859569 0.277378 0 -2.65427e-05 0.281485 0 -0.00143547 0.2793 0 -0.000136061 0.281486 0 -0.00129736 0.279669 0 -0.000318981 0.281409 0 -0.00107883 0.280208 0 -0.000554996 0.281175 0 -0.000818749 0.280755 0 -2.7576e-05 0.278756 0 -0.0014601 0.276542 0 -0.000141221 0.278753 0 -0.00132289 0.276913 0 -0.000330414 0.278671 0 -0.00110435 0.277455 0 -0.000573058 0.278431 0 -0.000841883 0.278006 0 -2.66297e-05 0.280543 0 -0.00143219 0.278347 0 -0.000136471 0.280543 0 -0.00129522 0.278717 0 -0.000319767 0.280465 0 -0.00107813 0.279258 0 -0.00055589 0.280229 0 -0.000819171 0.279807 0 -2.69795e-05 0.279591 0 -0.0014403 0.277384 0 -0.000138216 0.279589 0 -0.00130368 0.277755 0 -0.000323631 0.279509 0 -0.00108665 0.278296 0 -0.000561979 0.279271 0 -0.000826939 0.278847 0 -3.049e-05 0.289524 0 -0.00166566 0.287449 0 -0.000156431 0.28953 0 -0.00150423 0.287804 0 -0.000367272 0.289463 0 -0.00124916 0.288321 0 -0.000640208 0.289244 0 -0.000946326 0.288845 0 -2.67806e-05 0.282991 0 -0.00145711 0.280827 0 -0.000137325 0.282994 0 -0.00131605 0.281194 0 -0.000322147 0.28292 0 -0.00109322 0.28173 0 -0.000561036 0.282689 0 -0.000828646 0.282273 0 -3.00397e-05 0.288915 0 -0.00164183 0.286833 0 -0.000154118 0.288921 0 -0.00148257 0.287189 0 -0.00036184 0.288854 0 -0.00123101 0.287708 0 -0.000630765 0.288634 0 -0.000932455 0.288233 0 -2.6936e-05 0.283494 0 -0.00146761 0.281336 0 -0.000138133 0.283497 0 -0.00132535 0.281702 0 -0.000324094 0.283423 0 -0.00110069 0.282237 0 -0.000564556 0.283193 0 -0.000834074 0.282778 0 -2.93384e-05 0.287928 0 -0.00160437 0.285831 0 -0.000150515 0.287933 0 -0.00144857 0.28619 0 -0.000353372 0.287864 0 -0.00120257 0.286711 0 -0.000616021 0.287643 0 -0.000910759 0.28724 0 -2.72694e-05 0.284349 0 -0.00148845 0.282203 0 -0.00013986 0.284352 0 -0.00134394 0.282568 0 -0.000328217 0.28428 0 -0.00111582 0.2831 0 -0.000571913 0.284052 0 -0.000845242 0.283639 0 -2.85431e-05 0.286718 0 -0.00156113 0.284605 0 -0.000146425 0.286723 0 -0.00140941 0.284966 0 -0.000343745 0.286653 0 -0.00116992 0.285491 0 -0.000599218 0.28643 0 -0.000885947 0.286023 0 -2.78158e-05 0.285469 0 -0.00152044 0.283338 0 -0.00014268 0.285473 0 -0.00137267 0.283701 0 -0.000334904 0.285402 0 -0.00113946 0.28423 0 -0.00058372 0.285176 0 -0.000862932 0.284766 0 -0.002532 0.304826 0 -0.00586838 0.298981 0 -0.00276942 0.304464 0 -0.00553121 0.299603 0 -0.00317971 0.303804 0 -0.00499655 0.300587 0 -0.00372957 0.302868 0 -0.00436254 0.301743 0 -0.00212418 0.295848 0 -0.00504734 0.289641 0 -0.00232762 0.295465 0 -0.00474627 0.290304 0 -0.00268098 0.294766 0 -0.00427118 0.291352 0 -0.003158 0.293775 0 -0.00371181 0.292581 0 -0.00249614 0.304028 0 -0.00579717 0.298151 0 -0.00273063 0.303664 0 -0.00546309 0.298776 0 -0.00313602 0.303001 0 -0.0049335 0.299766 0 -0.00367964 0.302059 0 -0.00430586 0.300928 0 -0.00215745 0.296577 0 -0.00511519 0.2904 0 -0.00236369 0.296196 0 -0.00481106 0.291059 0 -0.00272177 0.2955 0 -0.00433094 0.292102 0 -0.00320485 0.294513 0 -0.00376528 0.293324 0 -0.00243704 0.302717 0 -0.00567938 0.296788 0 -0.00266666 0.302351 0 -0.0053504 0.297419 0 -0.00306392 0.301682 0 -0.00482925 0.298418 0 -0.00359718 0.300732 0 -0.00421217 0.299591 0 -0.00221331 0.297801 0 -0.00522882 0.291673 0 -0.00242426 0.297422 0 -0.0049196 0.292327 0 -0.00279024 0.296732 0 -0.0044311 0.293361 0 -0.00328348 0.295752 0 -0.00385498 0.294573 0 -0.00236317 0.301088 0 -0.0055314 0.295093 0 -0.00258666 0.300718 0 -0.00520887 0.295731 0 -0.00297367 0.300041 0 -0.00469835 0.296742 0 -0.00349384 0.299082 0 -0.00409463 0.297928 0 -0.002285 0.299371 0 -0.00537397 0.293307 0 -0.00250197 0.298997 0 -0.00505834 0.293954 0 -0.00287804 0.298313 0 -0.00455922 0.294976 0 -0.00338422 0.297343 0 -0.00396981 0.296176 0 -3.72604e-05 0.297648 0 -0.00201259 0.295672 0 -0.000191139 0.297656 0 -0.00182059 0.296011 0 -0.000448489 0.297594 0 -0.00151573 0.296505 0 -0.000780688 0.297387 0 -0.00115139 0.297005 0 -3.07155e-05 0.289822 0 -0.00167753 0.287752 0 -0.000157589 0.289828 0 -0.00151502 0.288106 0 -0.00036999 0.289762 0 -0.00125822 0.288622 0 -0.000644929 0.289543 0 -0.000953254 0.289145 0 -3.66361e-05 0.296938 0 -0.00198122 0.294955 0 -0.000187944 0.296946 0 -0.00179194 0.295295 0 -0.000441033 0.296885 0 -0.00149152 0.295791 0 -0.000767839 0.296677 0 -0.00113271 0.296294 0 -3.11932e-05 0.290444 0 -0.00170259 0.288381 0 -0.000160042 0.29045 0 -0.00153782 0.288735 0 -0.000375745 0.290384 0 -0.00127735 0.289249 0 -0.000654923 0.290167 0 -0.000967908 0.28977 0 -3.56239e-05 0.295779 0 -0.00193014 0.293783 0 -0.000182761 0.295788 0 -0.00174529 0.294125 0 -0.000428931 0.295726 0 -0.00145213 0.294625 0 -0.000746962 0.295516 0 -0.00110232 0.295131 0 -3.20226e-05 0.291493 0 -0.00174579 0.289445 0 -0.000164299 0.2915 0 -0.00157715 0.289796 0 -0.000385728 0.291435 0 -0.00131041 0.290307 0 -0.000672238 0.29122 0 -0.000993265 0.290825 0 -3.43912e-05 0.294348 0 -0.00186754 0.292334 0 -0.000176446 0.294356 0 -0.00168816 0.29268 0 -0.000414168 0.294293 0 -0.00140392 0.293183 0 -0.000721464 0.294081 0 -0.00106517 0.293693 0 -3.31316e-05 0.292851 0 -0.00180306 0.290819 0 -0.000169988 0.292859 0 -0.00162935 0.291168 0 -0.000399056 0.292795 0 -0.00135435 0.291675 0 -0.000695326 0.292581 0 -0.00102702 0.292189 0 -4.54497e-05 0.306871 0 -0.00241939 0.304991 0 -0.000233013 0.306874 0 -0.00219253 0.305311 0 -0.000546048 0.30681 0 -0.0018305 0.305776 0 -0.000948505 0.30661 0 -0.00139491 0.306248 0 -3.75668e-05 0.297995 0 -0.00202796 0.296023 0 -0.000192707 0.298003 0 -0.00183462 0.296361 0 -0.000452145 0.297941 0 -0.00152758 0.296854 0 -0.000786987 0.297734 0 -0.00116055 0.297353 0 -4.47551e-05 0.306081 0 -0.00238496 0.304194 0 -0.000229458 0.306084 0 -0.00216101 0.304515 0 -0.00053776 0.306021 0 -0.00180378 0.304982 0 -0.000934242 0.30582 0 -0.00137422 0.305457 0 -3.82047e-05 0.298715 0 -0.00205987 0.296751 0 -0.000195969 0.298722 0 -0.00186378 0.297088 0 -0.000459751 0.298661 0 -0.00155222 0.297578 0 -0.000800084 0.298455 0 -0.00117958 0.298076 0 -4.36094e-05 0.304785 0 -0.00232821 0.302885 0 -0.000223598 0.304789 0 -0.00210908 0.303209 0 -0.000524103 0.304726 0 -0.00175979 0.30368 0 -0.000910751 0.304525 0 -0.00134015 0.304159 0 -3.92795e-05 0.299924 0 -0.00211347 0.297973 0 -0.000201465 0.299931 0 -0.00191275 0.298308 0 -0.000472557 0.29987 0 -0.00159363 0.298794 0 -0.00082212 0.299664 0 -0.00121158 0.299288 0 -4.21773e-05 0.303174 0 -0.00225729 0.301257 0 -0.000216276 0.303179 0 -0.00204421 0.301584 0 -0.000507048 0.303117 0 -0.00170486 0.302061 0 -0.000881427 0.302914 0 -0.00129762 0.302544 0 -4.06638e-05 0.301477 0 -0.00218226 0.299543 0 -0.000208541 0.301483 0 -0.00197562 0.299873 0 -0.000489036 0.301421 0 -0.00164681 0.300355 0 -0.00085046 0.301217 0 -0.00125271 0.300844 0 -0.0111821 0.289629 0 -0.0178338 0.279573 0 -0.0116847 0.288807 0 -0.0172062 0.280452 0 -0.0125451 0.287426 0 -0.01619 0.281904 0 -0.0136784 0.285654 0 -0.0149512 0.283724 0 -0.00989054 0.27958 0 -0.0160893 0.268609 0 -0.0103548 0.278689 0 -0.0154995 0.269574 0 -0.011151 0.277189 0 -0.0145467 0.271165 0 -0.0122031 0.27526 0 -0.0133887 0.273155 0 -0.0110707 0.288736 0 -0.0176848 0.278601 0 -0.0115701 0.287908 0 -0.0170603 0.279487 0 -0.0124251 0.286516 0 -0.0160494 0.280952 0 -0.0135517 0.284731 0 -0.0148173 0.282786 0 -0.00999882 0.280397 0 -0.0162368 0.269503 0 -0.0104663 0.279511 0 -0.0156437 0.270461 0 -0.0112682 0.278021 0 -0.0146854 0.27204 0 -0.0123272 0.276106 0 -0.0135204 0.274016 0 -0.0108866 0.28727 0 -0.0174377 0.277005 0 -0.0113806 0.286432 0 -0.0168185 0.277904 0 -0.0122267 0.285024 0 -0.0158163 0.279388 0 -0.0133419 0.283216 0 -0.0145954 0.281246 0 -0.0101791 0.281767 0 -0.0164819 0.271001 0 -0.0106521 0.280891 0 -0.0158834 0.271947 0 -0.0114631 0.279418 0 -0.014916 0.273507 0 -0.0125338 0.277524 0 -0.0137394 0.275459 0 -0.0106551 0.285447 0 -0.017126 0.275018 0 -0.0111423 0.284596 0 -0.0165135 0.275932 0 -0.011977 0.283167 0 -0.0155225 0.277441 0 -0.0130779 0.281331 0 -0.0143159 0.27933 0 -0.010408 0.283526 0 -0.0167923 0.272922 0 -0.0108879 0.282662 0 -0.016187 0.273852 0 -0.0117104 0.281209 0 -0.0152081 0.275388 0 -0.0127957 0.279344 0 -0.014017 0.277309 0 -0.00516406 0.288945 0 -0.00961807 0.279617 0 -0.0054804 0.288248 0 -0.0091739 0.280494 0 -0.00602987 0.287047 0 -0.00846503 0.281919 0 -0.00676869 0.285455 0 -0.00761836 0.283663 0 -0.00441581 0.280671 0 -0.00842614 0.270746 0 -0.00469638 0.279933 0 -0.00802129 0.271685 0 -0.00518553 0.278661 0 -0.00737714 0.273208 0 -0.00584662 0.276973 0 -0.00661119 0.275066 0 -0.00509561 0.288196 0 -0.00951207 0.278814 0 -0.00540887 0.287495 0 -0.0090712 0.279697 0 -0.00595316 0.286288 0 -0.00836776 0.281131 0 -0.00668538 0.284688 0 -0.00752788 0.282885 0 -0.00447381 0.281329 0 -0.00852172 0.271452 0 -0.00475734 0.280594 0 -0.00811349 0.272386 0 -0.00525152 0.279328 0 -0.00746378 0.273901 0 -0.00591915 0.277647 0 -0.00669093 0.27575 0 -0.00498372 0.286972 0 -0.00933767 0.277503 0 -0.00529185 0.286265 0 -0.0089023 0.278394 0 -0.00582757 0.285047 0 -0.00820791 0.279843 0 -0.0065488 0.283433 0 -0.00737933 0.281613 0 -0.00457268 0.282439 0 -0.00868314 0.272644 0 -0.00486116 0.28171 0 -0.0082693 0.273569 0 -0.00536376 0.280453 0 -0.00761039 0.275071 0 -0.0060423 0.278786 0 -0.00682609 0.276904 0 -0.00484563 0.285458 0 -0.00912039 0.275881 0 -0.00514732 0.284744 0 -0.008692 0.276784 0 -0.00567221 0.283513 0 -0.0080091 0.27825 0 -0.00637952 0.281881 0 -0.00719487 0.280041 0 -0.00470195 0.283875 0 -0.00889164 0.274184 0 -0.00499678 0.283154 0 -0.00847076 0.275099 0 -0.00551009 0.281909 0 -0.00780025 0.276583 0 -0.00620248 0.280258 0 -0.0070015 0.278397 0 -0.0060361 0.298673 0 -0.0109427 0.290025 0 -0.00639017 0.298022 0 -0.0104589 0.290833 0 -0.00700239 0.296903 0 -0.00968483 0.292149 0 -0.00782091 0.295423 0 -0.00875684 0.293761 0 -0.00519751 0.289311 0 -0.00966969 0.280009 0 -0.00551535 0.288616 0 -0.00922393 0.280883 0 -0.00606732 0.287418 0 -0.00851243 0.282305 0 -0.00680934 0.285831 0 -0.00766248 0.284043 0 -0.00596339 0.29784 0 -0.0108329 0.289135 0 -0.00631436 0.297185 0 -0.0103523 0.289949 0 -0.00692142 0.296059 0 -0.00958356 0.291273 0 -0.00773338 0.29457 0 -0.00866223 0.292897 0 -0.00526686 0.290072 0 -0.00977637 0.280823 0 -0.00558778 0.28938 0 -0.00932732 0.281692 0 -0.0061449 0.288188 0 -0.00861042 0.283105 0 -0.00689348 0.28661 0 -0.00775375 0.284833 0 -0.00584312 0.296474 0 -0.0106513 0.287674 0 -0.00618896 0.295812 0 -0.0101761 0.288497 0 -0.00678749 0.294675 0 -0.00941613 0.289837 0 -0.00758863 0.29317 0 -0.00850579 0.291478 0 -0.00538295 0.291348 0 -0.00995403 0.282189 0 -0.00570899 0.290662 0 -0.00949956 0.283049 0 -0.00627461 0.289481 0 -0.00877377 0.284447 0 -0.00703401 0.287917 0 -0.00790601 0.286157 0 -0.00569201 0.294775 0 -0.0104231 0.285856 0 -0.0060314 0.294106 0 -0.00995458 0.286692 0 -0.00661921 0.292954 0 -0.00920573 0.288051 0 -0.00740676 0.291429 0 -0.00830922 0.289715 0 -0.00553123 0.292985 0 -0.0101796 0.283942 0 -0.00586371 0.292307 0 -0.00971836 0.28479 0 -0.00644004 0.29114 0 -0.00898142 0.286169 0 -0.00721303 0.289596 0 -0.00809976 0.287857 0 -0.0221034 0.244423 0 -0.0304915 0.232189 0 -0.0227811 0.243358 0 -0.0297448 0.233203 0 -0.0239212 0.241601 0 -0.0285188 0.234898 0 -0.025388 0.239399 0 -0.0269937 0.237058 0 -0.0200896 0.234956 0 -0.0280301 0.221394 0 -0.0207268 0.233785 0 -0.0273189 0.222527 0 -0.0218005 0.231847 0 -0.0261529 0.224416 0 -0.0231854 0.229413 0 -0.0247055 0.226817 0 -0.0219234 0.243553 0 -0.0302757 0.231209 0 -0.0225979 0.24248 0 -0.0295318 0.232233 0 -0.0237326 0.240707 0 -0.0283106 0.233944 0 -0.0251929 0.238486 0 -0.0267918 0.236124 0 -0.0202501 0.235694 0 -0.0282315 0.222247 0 -0.020891 0.234531 0 -0.027517 0.22337 0 -0.0219708 0.23261 0 -0.0263456 0.225241 0 -0.0233632 0.230195 0 -0.0248911 0.227622 0 -0.0216277 0.242136 0 -0.0299197 0.229608 0 -0.0222967 0.241047 0 -0.0291806 0.230648 0 -0.0234224 0.23925 0 -0.0279675 0.232386 0 -0.0248717 0.236996 0 -0.0264591 0.234599 0 -0.0205217 0.236946 0 -0.0285694 0.223691 0 -0.0211686 0.235799 0 -0.0278497 0.224796 0 -0.0222581 0.233903 0 -0.0266693 0.22664 0 -0.0236627 0.231522 0 -0.0252033 0.228986 0 -0.0212598 0.240391 0 -0.0294743 0.227629 0 -0.0219217 0.239284 0 -0.0287414 0.22869 0 -0.023036 0.237455 0 -0.0275387 0.230462 0 -0.0244711 0.23516 0 -0.0260437 0.232718 0 -0.0208732 0.238579 0 -0.0290026 0.225563 0 -0.0215275 0.237451 0 -0.0282764 0.226647 0 -0.0226292 0.235587 0 -0.0270851 0.228455 0 -0.0240487 0.233248 0 -0.0256049 0.230757 0 -0.0129924 0.248907 0 -0.0197072 0.235175 0 -0.0135102 0.247756 0 -0.0190845 0.236353 0 -0.0143919 0.245836 0 -0.0180719 0.238305 0 -0.015545 0.243398 0 -0.0168302 0.240767 0 -0.0120259 0.242706 0 -0.0181763 0.227893 0 -0.0124967 0.241476 0 -0.0176017 0.229175 0 -0.0132997 0.23942 0 -0.0166694 0.231297 0 -0.0143524 0.2368 0 -0.0155291 0.233962 0 -0.0128833 0.24829 0 -0.0195527 0.234463 0 -0.0133973 0.247132 0 -0.0189337 0.23565 0 -0.0142725 0.2452 0 -0.0179275 0.237617 0 -0.0154175 0.242745 0 -0.0166939 0.240097 0 -0.0120747 0.243136 0 -0.0182757 0.228412 0 -0.0125496 0.241912 0 -0.0176967 0.229686 0 -0.0133595 0.239868 0 -0.0167571 0.231793 0 -0.0144212 0.237262 0 -0.0156076 0.234441 0 -0.012711 0.2473 0 -0.0193038 0.233318 0 -0.0132184 0.246131 0 -0.0186913 0.23452 0 -0.0140828 0.244179 0 -0.0176959 0.236511 0 -0.0152141 0.241698 0 -0.0164759 0.239019 0 -0.0121719 0.243893 0 -0.0184559 0.229317 0 -0.0126537 0.24268 0 -0.0178697 0.230577 0 -0.013475 0.240654 0 -0.0169181 0.23266 0 -0.0145513 0.238073 0 -0.0157536 0.23528 0 -0.0125108 0.246114 0 -0.0190053 0.231936 0 -0.01301 0.244929 0 -0.0184011 0.233156 0 -0.0138605 0.242953 0 -0.0174195 0.235178 0 -0.0149743 0.240439 0 -0.0162171 0.237723 0 -0.0123213 0.244922 0 -0.018708 0.230537 0 -0.0128115 0.243723 0 -0.018113 0.231778 0 -0.013647 0.241721 0 -0.0171467 0.233832 0 -0.0147416 0.239172 0 -0.0159637 0.236416 0 -0.0145417 0.257508 0 -0.0217773 0.244941 0 -0.0151047 0.256446 0 -0.0211116 0.24601 0 -0.0160611 0.254678 0 -0.0200271 0.247786 0 -0.0173082 0.252438 0 -0.0186933 0.250031 0 -0.0130466 0.249212 0 -0.0197833 0.235525 0 -0.0135663 0.248064 0 -0.0191587 0.236699 0 -0.014451 0.246151 0 -0.0181431 0.238645 0 -0.0156081 0.243719 0 -0.0168975 0.241098 0 -0.0144038 0.256738 0 -0.0215989 0.244076 0 -0.0149633 0.255668 0 -0.0209365 0.245153 0 -0.0159138 0.253888 0 -0.0198576 0.246943 0 -0.0171536 0.251632 0 -0.0185309 0.249206 0 -0.0131606 0.24985 0 -0.0199421 0.236258 0 -0.0136841 0.248709 0 -0.0193137 0.237423 0 -0.0145752 0.246808 0 -0.0182919 0.239354 0 -0.0157403 0.244393 0 -0.0170383 0.241789 0 -0.0141786 0.255486 0 -0.0213058 0.242665 0 -0.0147321 0.254404 0 -0.020649 0.243758 0 -0.0156728 0.252603 0 -0.0195793 0.245572 0 -0.0169003 0.25032 0 -0.0182646 0.247863 0 -0.013356 0.250938 0 -0.0202107 0.237504 0 -0.0138859 0.249809 0 -0.0195763 0.238653 0 -0.0147874 0.247928 0 -0.0185443 0.24056 0 -0.0159657 0.24554 0 -0.0172778 0.242966 0 -0.013901 0.253951 0 -0.0209414 0.24093 0 -0.014447 0.252853 0 -0.0202917 0.242041 0 -0.0153752 0.251026 0 -0.019234 0.243885 0 -0.016587 0.248708 0 -0.0179346 0.246214 0 -0.0136134 0.252362 0 -0.0205586 0.239127 0 -0.014151 0.251248 0 -0.0199167 0.240258 0 -0.0150656 0.249393 0 -0.0188722 0.242135 0 -0.0162602 0.247039 0 -0.0175896 0.244504 0 -0.0266455 0.268455 0 -0.0358432 0.258763 0 -0.027396 0.2676 0 -0.0350313 0.259558 0 -0.028655 0.266195 0 -0.0336958 0.260888 0 -0.0302693 0.264442 0 -0.0320297 0.262589 0 -0.0244489 0.256313 0 -0.0332692 0.245428 0 -0.0251658 0.255359 0 -0.032488 0.246325 0 -0.0263698 0.253788 0 -0.0312039 0.247824 0 -0.0279156 0.251823 0 -0.0296039 0.249741 0 -0.0264586 0.267383 0 -0.0356243 0.257592 0 -0.0272063 0.26652 0 -0.034815 0.258394 0 -0.0284607 0.265101 0 -0.0334839 0.259738 0 -0.0300692 0.26333 0 -0.0318234 0.261458 0 -0.0246359 0.257308 0 -0.0334888 0.246526 0 -0.0253557 0.256362 0 -0.032705 0.247414 0 -0.0265645 0.254805 0 -0.0314164 0.248899 0 -0.0281163 0.252859 0 -0.0298107 0.250796 0 -0.0261487 0.265621 0 -0.0352613 0.255664 0 -0.0268917 0.264744 0 -0.0344564 0.256481 0 -0.0281384 0.263302 0 -0.0331325 0.257848 0 -0.0297373 0.261502 0 -0.0314814 0.259597 0 -0.024946 0.258973 0 -0.0338526 0.248363 0 -0.0256707 0.258042 0 -0.0330644 0.249235 0 -0.0268873 0.256508 0 -0.0317686 0.250696 0 -0.0284488 0.254592 0 -0.0301535 0.252563 0 -0.0257574 0.263424 0 -0.0348031 0.253257 0 -0.0264944 0.26253 0 -0.0340037 0.254091 0 -0.0277314 0.261058 0 -0.0326889 0.255489 0 -0.0293181 0.259221 0 -0.0310495 0.257276 0 -0.0253375 0.261104 0 -0.0343114 0.250708 0 -0.0260682 0.26019 0 -0.0335178 0.251562 0 -0.0272946 0.258687 0 -0.0322128 0.252992 0 -0.0288684 0.256809 0 -0.0305859 0.25482 0 -0.0163073 0.267708 0 -0.0240136 0.256299 0 -0.0169116 0.266736 0 -0.0233094 0.257263 0 -0.0179362 0.265123 0 -0.0221604 0.258867 0 -0.0192685 0.263084 0 -0.0207438 0.260899 0 -0.0146091 0.257886 0 -0.0218642 0.245365 0 -0.0151738 0.256827 0 -0.0211969 0.24643 0 -0.016133 0.255065 0 -0.0201097 0.248199 0 -0.0173836 0.252834 0 -0.0187725 0.250435 0 -0.0161588 0.266823 0 -0.0238282 0.255321 0 -0.0167599 0.265844 0 -0.0231271 0.256293 0 -0.0177791 0.264218 0 -0.0219831 0.25791 0 -0.0191047 0.262163 0 -0.020573 0.259959 0 -0.0147489 0.258671 0 -0.022044 0.246246 0 -0.015317 0.257619 0 -0.0213734 0.247302 0 -0.016282 0.25587 0 -0.0202807 0.249056 0 -0.0175399 0.253655 0 -0.0189364 0.251275 0 -0.015914 0.265375 0 -0.0235215 0.253717 0 -0.0165095 0.264383 0 -0.0228254 0.254703 0 -0.0175197 0.262736 0 -0.0216899 0.256343 0 -0.0188341 0.260654 0 -0.0202906 0.258421 0 -0.0149829 0.259995 0 -0.0223437 0.247728 0 -0.0155568 0.258956 0 -0.0216677 0.248769 0 -0.0165313 0.257228 0 -0.020566 0.2505 0 -0.017801 0.25504 0 -0.0192101 0.25269 0 -0.0156074 0.263582 0 -0.0231359 0.251727 0 -0.016196 0.262575 0 -0.0224462 0.252731 0 -0.0171947 0.260902 0 -0.0213215 0.2544 0 -0.0184948 0.258785 0 -0.0199361 0.256514 0 -0.0152821 0.261704 0 -0.0227245 0.249636 0 -0.0158632 0.26068 0 -0.0220419 0.250659 0 -0.0168495 0.258978 0 -0.020929 0.25236 0 -0.018134 0.256825 0 -0.0195588 0.254513 0 -0.0181423 0.279145 0 -0.0262838 0.268871 0 -0.0187855 0.278265 0 -0.0255443 0.269733 0 -0.0198737 0.276804 0 -0.0243359 0.271169 0 -0.021285 0.274963 0 -0.0228434 0.272994 0 -0.0163795 0.26814 0 -0.0241036 0.256777 0 -0.0169854 0.267172 0 -0.023398 0.257737 0 -0.0180126 0.265565 0 -0.0222465 0.259334 0 -0.0193481 0.263534 0 -0.0208269 0.261357 0 -0.0179917 0.27817 0 -0.0260984 0.267803 0 -0.0186318 0.277282 0 -0.0253617 0.268673 0 -0.019715 0.275808 0 -0.0241581 0.270123 0 -0.02112 0.273951 0 -0.0226717 0.271965 0 -0.0165286 0.269038 0 -0.0242892 0.257768 0 -0.0171377 0.268077 0 -0.0235806 0.258719 0 -0.0181702 0.266482 0 -0.0224242 0.260302 0 -0.0195124 0.264467 0 -0.0209981 0.262309 0 -0.0177421 0.276568 0 -0.0257908 0.266048 0 -0.0183771 0.275667 0 -0.0250588 0.266931 0 -0.0194518 0.274173 0 -0.0238632 0.268404 0 -0.0208462 0.272289 0 -0.0223869 0.270274 0 -0.0167763 0.270542 0 -0.024597 0.259426 0 -0.0173908 0.269593 0 -0.0238835 0.260363 0 -0.0184321 0.268019 0 -0.0227189 0.261924 0 -0.0197852 0.266031 0 -0.0212824 0.263902 0 -0.0174272 0.274574 0 -0.0254023 0.26386 0 -0.0180556 0.273658 0 -0.0246764 0.264761 0 -0.0191195 0.272138 0 -0.0234908 0.266262 0 -0.0205007 0.270219 0 -0.0220273 0.268167 0 -0.01709 0.27247 0 -0.0249855 0.261549 0 -0.0177112 0.271537 0 -0.024266 0.262468 0 -0.0187635 0.269989 0 -0.0230912 0.264 0 -0.0201302 0.268035 0 -0.0216417 0.265943 0 -0.0464399 0.249238 0 -0.0564364 0.241335 0 -0.0472881 0.248533 0 -0.0555837 0.241979 0 -0.0486959 0.247379 0 -0.0541702 0.243058 0 -0.0504755 0.245947 0 -0.0523868 0.244439 0 -0.0434987 0.234638 0 -0.0531832 0.225652 0 -0.0443197 0.233836 0 -0.0523569 0.226383 0 -0.0456829 0.232524 0 -0.050987 0.227608 0 -0.0474067 0.230894 0 -0.0492587 0.229179 0 -0.0461894 0.247962 0 -0.0561585 0.239972 0 -0.0470352 0.247249 0 -0.0553081 0.240623 0 -0.0484392 0.246082 0 -0.0538985 0.241713 0 -0.0502139 0.244634 0 -0.0521199 0.24311 0 -0.0437495 0.235848 0 -0.0534599 0.22696 0 -0.0445727 0.235055 0 -0.0526314 0.227683 0 -0.0459396 0.233757 0 -0.051258 0.228894 0 -0.0476682 0.232145 0 -0.049525 0.230448 0 -0.0457744 0.24586 0 -0.0556984 0.237723 0 -0.0466163 0.245135 0 -0.0548519 0.238386 0 -0.0480138 0.243946 0 -0.0534486 0.239496 0 -0.0497805 0.242471 0 -0.051678 0.240918 0 -0.0441649 0.237868 0 -0.0539184 0.229138 0 -0.0449919 0.237089 0 -0.0530863 0.229849 0 -0.0463651 0.235814 0 -0.0517069 0.231039 0 -0.0481013 0.234231 0 -0.0499664 0.232564 0 -0.0452506 0.243232 0 -0.0551185 0.234905 0 -0.0460877 0.242489 0 -0.0542768 0.235583 0 -0.0474772 0.241273 0 -0.0528813 0.236719 0 -0.0492339 0.239763 0 -0.0511207 0.238174 0 -0.0446889 0.240442 0 -0.0544973 0.231909 0 -0.0455207 0.23968 0 -0.0536606 0.232603 0 -0.0469017 0.238434 0 -0.0522735 0.233767 0 -0.0486478 0.236886 0 -0.0505233 0.235258 0 -0.0335427 0.244463 0 -0.0429796 0.234446 0 -0.034329 0.243573 0 -0.0421619 0.235262 0 -0.0356408 0.242112 0 -0.0408112 0.23663 0 -0.03731 0.240296 0 -0.0391155 0.238382 0 -0.0309613 0.23218 0 -0.0400545 0.220873 0 -0.0317164 0.231179 0 -0.0392643 0.221798 0 -0.0329773 0.229536 0 -0.0379597 0.223346 0 -0.0345838 0.22749 0 -0.0363237 0.225329 0 -0.0333218 0.243372 0 -0.0427299 0.23325 0 -0.0341055 0.242472 0 -0.0419146 0.234075 0 -0.035413 0.240997 0 -0.0405677 0.235457 0 -0.0370771 0.239162 0 -0.038877 0.237228 0 -0.0311794 0.233179 0 -0.0403026 0.221987 0 -0.0319373 0.232188 0 -0.0395101 0.222901 0 -0.0332026 0.230561 0 -0.0382015 0.224434 0 -0.0348146 0.228535 0 -0.0365602 0.226396 0 -0.0329558 0.241581 0 -0.0423161 0.231283 0 -0.0337352 0.240666 0 -0.0415046 0.232122 0 -0.0350357 0.239166 0 -0.0401642 0.233529 0 -0.036691 0.237299 0 -0.0384819 0.235332 0 -0.0315419 0.234855 0 -0.0407144 0.223851 0 -0.0323042 0.23388 0 -0.039918 0.224749 0 -0.0335769 0.232279 0 -0.0386028 0.226255 0 -0.0351979 0.230286 0 -0.036953 0.228184 0 -0.0324945 0.239353 0 -0.0417942 0.228829 0 -0.0332684 0.238419 0 -0.0409876 0.229688 0 -0.0345599 0.236886 0 -0.0396553 0.231126 0 -0.0362042 0.23498 0 -0.0379835 0.232969 0 -0.0320008 0.237005 0 -0.041235 0.226235 0 -0.0327688 0.23605 0 -0.0404337 0.227114 0 -0.0340506 0.234482 0 -0.0391102 0.228586 0 -0.0356829 0.232531 0 -0.0374497 0.230473 0 -0.0362388 0.25838 0 -0.0460286 0.249582 0 -0.0370566 0.257596 0 -0.0451823 0.250297 0 -0.03842 0.25631 0 -0.0437835 0.251495 0 -0.0401533 0.254713 0 -0.0420262 0.253032 0 -0.0336499 0.244996 0 -0.0431007 0.235029 0 -0.0344375 0.244109 0 -0.042282 0.235841 0 -0.0357513 0.242656 0 -0.0409294 0.237201 0 -0.0374231 0.240849 0 -0.0392313 0.238945 0 -0.0360186 0.257204 0 -0.0457793 0.24831 0 -0.0368339 0.256411 0 -0.0449354 0.249033 0 -0.038193 0.255112 0 -0.0435406 0.250244 0 -0.0399211 0.253498 0 -0.0417884 0.251799 0 -0.0338708 0.246098 0 -0.0433504 0.236235 0 -0.034661 0.245221 0 -0.0425293 0.237038 0 -0.035979 0.243782 0 -0.0411728 0.238384 0 -0.037656 0.241994 0 -0.0394697 0.24011 0 -0.0356536 0.25527 0 -0.0453662 0.246215 0 -0.0364646 0.254463 0 -0.0445262 0.246951 0 -0.0378167 0.25314 0 -0.043138 0.248185 0 -0.0395361 0.251497 0 -0.0413942 0.249767 0 -0.0342367 0.247941 0 -0.0437639 0.238248 0 -0.0350311 0.247079 0 -0.042939 0.239037 0 -0.0363562 0.245664 0 -0.041576 0.24036 0 -0.0380419 0.243907 0 -0.0398646 0.242055 0 -0.0351927 0.252854 0 -0.0448448 0.243595 0 -0.0359983 0.252029 0 -0.0440098 0.244347 0 -0.0373416 0.250677 0 -0.0426298 0.245609 0 -0.03905 0.248997 0 -0.0408966 0.247228 0 -0.0346981 0.250295 0 -0.0442856 0.240814 0 -0.035498 0.249451 0 -0.0434558 0.241585 0 -0.0368318 0.248067 0 -0.0420846 0.242878 0 -0.0385285 0.246347 0 -0.0403627 0.244536 0 </DataArray> 
</PointData> 
<Points> 
<DataArray type="Float32" NumberOfComponents="3"> 
1.13707 0.116398 0 1.13657 0.00231895 0 1.13716 0.106545 0 1.13671 0.0118925 0 1.13725 0.0902687 0 1.13692 0.0278202 0 1.13725 0.0698261 0 1.13713 0.0480265 0 0.999571 0.0923341 0 1.00369 0.00183999 0 1.00024 0.0845214 0 1.00364 0.00943609 0 1.00121 0.0716134 0 1.00345 0.0220737 0 1.0022 0.0553988 0 1.00298 0.0381052 0 1.12773 0.114861 0 1.12763 0.00228814 0 1.12786 0.105138 0 1.12775 0.0117345 0 1.12801 0.0890752 0 1.1279 0.0274511 0 1.12808 0.0689019 0 1.12803 0.0473901 0 1.01462 0.0950579 0 1.01836 0.00189389 0 1.01522 0.0870132 0 1.01831 0.00971269 0 1.0161 0.0737224 0 1.01813 0.0227213 0 1.017 0.0570282 0 1.0177 0.0392245 0 1.11164 0.112165 0 1.11223 0.00223416 0 1.11184 0.102669 0 1.11229 0.0114579 0 1.11209 0.0869823 0 1.11236 0.0268044 0 1.11229 0.0672818 0 1.11237 0.0462748 0 1.03782 0.0992335 0 1.04094 0.00197665 0 1.03833 0.0908334 0 1.04089 0.0101373 0 1.03906 0.0769565 0 1.04073 0.0237153 0 1.03979 0.0595276 0 1.04037 0.0409418 0 1.08993 0.108441 0 1.09135 0.00215979 0 1.09021 0.0992594 0 1.09136 0.0110765 0 1.09061 0.0840931 0 1.09134 0.0259128 0 1.09097 0.065046 0 1.09122 0.0447363 0 1.06435 0.103958 0 1.06666 0.00207051 0 1.06474 0.0951568 0 1.06663 0.0106187 0 1.0653 0.0806177 0 1.06652 0.0248418 0 1.06585 0.062358 0 1.06627 0.0428875 0 0.806174 1.00569 0 0.907764 0.952673 0 0.815038 1.00152 0 0.899329 0.957505 0 0.829644 0.994453 0 0.885257 0.965393 0 0.847925 0.985276 0 0.867339 0.975127 0 0.614409 0.79921 0 0.687865 0.737836 0 0.620879 0.794268 0 0.68183 0.743342 0 0.631517 0.785958 0 0.671734 0.752357 0 0.64479 0.775261 0 0.658829 0.763531 0 0.793837 0.992846 0 0.893577 0.939036 0 0.802545 0.988608 0 0.885302 0.943936 0 0.816893 0.981431 0 0.871493 0.951938 0 0.834845 0.972114 0 0.853905 0.961814 0 0.636003 0.823071 0 0.712571 0.762283 0 0.642739 0.818192 0 0.706273 0.767749 0 0.65382 0.80998 0 0.69574 0.776693 0 0.667648 0.799395 0 0.682282 0.787774 0 0.772224 0.970183 0 0.868736 0.915078 0 0.780659 0.965835 0 0.860738 0.920089 0 0.794554 0.958477 0 0.847388 0.928275 0 0.811934 0.94893 0 0.830377 0.938382 0 0.669138 0.859442 0 0.750504 0.799695 0 0.676286 0.85467 0 0.743799 0.805084 0 0.688045 0.846625 0 0.73259 0.813899 0 0.702729 0.836236 0 0.71828 0.824809 0 0.742441 0.938619 0 0.834537 0.881923 0 0.750502 0.934133 0 0.826917 0.887068 0 0.763776 0.926547 0 0.814193 0.895476 0 0.780371 0.916715 0 0.797971 0.905864 0 0.706703 0.900262 0 0.793545 0.841936 0 0.714318 0.895627 0 0.786373 0.847214 0 0.726851 0.8878 0 0.774393 0.855843 0 0.742511 0.877673 0 0.759107 0.866514 0 2.7944 0.335321 0 2.79214 0.00678505 0 2.79433 0.307307 0 2.79246 0.0347463 0 2.79416 0.260895 0 2.79293 0.081093 0 2.79387 0.202352 0 2.79344 0.139592 0 2.41305 0.286043 0 2.40809 0.00577729 0 2.4128 0.262109 0 2.40868 0.0295906 0 2.41232 0.222469 0 2.4096 0.0690795 0 2.41158 0.172494 0 2.41063 0.118952 0 2.76188 0.331128 0 2.75942 0.00669943 0 2.7618 0.303462 0 2.75976 0.0343082 0 2.76161 0.257627 0 2.76026 0.080072 0 2.76128 0.199813 0 2.76081 0.137837 0 2.44553 0.290249 0 2.44081 0.0058634 0 2.44529 0.265967 0 2.44138 0.0300311 0 2.44483 0.225749 0 2.44225 0.0701057 0 2.44413 0.175043 0 2.44323 0.120715 0 2.70802 0.324179 0 2.7052 0.00655745 0 2.70791 0.297089 0 2.70558 0.0335818 0 2.70768 0.252209 0 2.70614 0.0783791 0 2.7073 0.195604 0 2.70676 0.134928 0 2.49934 0.297214 0 2.49503 0.00600597 0 2.49913 0.272356 0 2.49555 0.0307604 0 2.49872 0.231182 0 2.49636 0.071805 0 2.49809 0.179265 0 2.49727 0.123634 0 2.64008 0.315408 0 2.63679 0.00637816 0 2.63994 0.289044 0 2.63722 0.0326645 0 2.63966 0.24537 0 2.63786 0.0762415 0 2.63919 0.19029 0 2.63856 0.131256 0 2.56724 0.305996 0 2.56343 0.00618567 0 2.56707 0.280411 0 2.56391 0.0316797 0 2.56672 0.238031 0 2.56464 0.0739469 0 2.56617 0.184587 0 2.56544 0.127314 0 2.79334 0.677954 0 2.79442 0.34892 0 2.79356 0.649913 0 2.79445 0.376939 0 2.79387 0.60345 0 2.79446 0.423375 0 2.79417 0.544831 0 2.79437 0.481975 0 2.41353 0.579214 0 2.41316 0.297664 0 2.41367 0.555195 0 2.41337 0.321612 0 2.41384 0.515405 0 2.41364 0.361313 0 2.41392 0.465222 0 2.41385 0.411436 0 2.76093 0.669542 0 2.76191 0.344559 0 2.76115 0.641845 0 2.76196 0.372231 0 2.76145 0.595951 0 2.76198 0.418093 0 2.76173 0.538052 0 2.76192 0.47597 0 2.44585 0.587632 0 2.44563 0.302038 0 2.446 0.563271 0 2.44582 0.326333 0 2.44618 0.522913 0 2.44606 0.366608 0 2.44628 0.472012 0 2.44624 0.417453 0 2.70726 0.655605 0 2.70806 0.33733 0 2.70746 0.628476 0 2.70813 0.364428 0 2.70774 0.583526 0 2.70818 0.409339 0 2.708 0.526819 0 2.70815 0.466019 0 2.49942 0.601576 0 2.49943 0.309283 0 2.49959 0.576648 0 2.49959 0.334153 0 2.49979 0.535349 0 2.49979 0.375379 0 2.49993 0.483258 0 2.49993 0.42742 0 2.63957 0.638022 0 2.64013 0.328207 0 2.63976 0.61161 0 2.64023 0.354579 0 2.64002 0.567849 0 2.64033 0.398291 0 2.64025 0.512645 0 2.64035 0.453461 0 2.56703 0.619164 0 2.56731 0.318417 0 2.56721 0.593521 0 2.56744 0.344012 0 2.56744 0.551034 0 2.56759 0.386438 0 2.56762 0.497441 0 2.56767 0.439989 0 2.38378 2.74563 0 2.70674 2.72787 0 2.41135 2.74423 0 2.67929 2.72949 0 2.45702 2.74185 0 2.63377 2.73213 0 2.5146 2.73878 0 2.57629 2.73539 0 2.03361 2.35568 0 2.30798 2.3326 0 2.05707 2.35386 0 2.2847 2.33471 0 2.09592 2.35079 0 2.24608 2.33816 0 2.14487 2.3468 0 2.19728 2.34239 0 2.35384 2.71229 0 2.67264 2.69407 0 2.38106 2.71085 0 2.64554 2.69573 0 2.42614 2.70841 0 2.60062 2.69844 0 2.48298 2.70526 0 2.54388 2.70178 0 2.06337 2.38882 0 2.34186 2.36619 0 2.08718 2.38704 0 2.31823 2.36826 0 2.12661 2.38402 0 2.27902 2.37164 0 2.17629 2.38011 0 2.22949 2.37579 0 2.30428 2.6571 0 2.6162 2.63813 0 2.33092 2.6556 0 2.58969 2.63986 0 2.37504 2.65307 0 2.54575 2.64268 0 2.43066 2.64978 0 2.49024 2.64616 0 2.1127 2.44375 0 2.39803 2.42186 0 2.13709 2.44202 0 2.37381 2.42387 0 2.17747 2.43911 0 2.33363 2.42713 0 2.22837 2.43533 0 2.28288 2.43115 0 2.24184 2.58757 0 2.54509 2.56764 0 2.26775 2.58599 0 2.51933 2.56946 0 2.31065 2.58333 0 2.47661 2.57243 0 2.36473 2.57989 0 2.42266 2.57608 0 2.17498 2.5131 0 2.46895 2.49216 0 2.2001 2.51145 0 2.44399 2.49408 0 2.2417 2.50866 0 2.40258 2.4972 0 2.29413 2.50504 0 2.35028 2.50104 0 2.04596 2.76121 0 2.37039 2.74631 0 2.07365 2.76004 0 2.3428 2.74769 0 2.11951 2.75807 0 2.29706 2.74992 0 2.17734 2.75551 0 2.23931 2.75267 0 1.74574 2.37564 0 2.02222 2.35655 0 1.76936 2.37416 0 1.99874 2.35833 0 1.80848 2.37166 0 1.95979 2.36121 0 1.85778 2.36838 0 1.9106 2.36474 0 2.0203 2.72824 0 2.34062 2.71298 0 2.04764 2.72705 0 2.31338 2.71439 0 2.09292 2.72504 0 2.26823 2.71669 0 2.15002 2.72241 0 2.21121 2.7195 0 1.77126 2.40841 0 2.05181 2.38967 0 1.79523 2.40696 0 2.02798 2.39142 0 1.83491 2.4045 0 1.98846 2.39424 0 1.88494 2.40128 0 1.93854 2.3977 0 1.97782 2.67368 0 2.29135 2.65782 0 2.00459 2.67245 0 2.26469 2.65929 0 2.04891 2.67035 0 2.2205 2.66167 0 2.1048 2.66763 0 2.16469 2.6646 0 1.81356 2.46273 0 2.10086 2.44458 0 1.8381 2.46132 0 2.07645 2.44626 0 1.87874 2.45893 0 2.03597 2.449 0 1.92997 2.45582 0 1.98485 2.45235 0 1.9243 2.60493 0 2.22927 2.58832 0 1.95033 2.60364 0 2.20334 2.58986 0 1.99346 2.60145 0 2.16036 2.59236 0 2.04783 2.5986 0 2.10608 2.59542 0 1.86697 2.53131 0 2.16278 2.5139 0 1.89223 2.52996 0 2.13764 2.51551 0 1.93406 2.52766 0 2.09596 2.51813 0 1.98681 2.52467 0 2.04332 2.52135 0 1.06932 0.608958 0 1.09743 0.491266 0 1.07205 0.599028 0 1.09534 0.501372 0 1.07644 0.582527 0 1.09177 0.518092 0 1.0817 0.561631 0 1.08705 0.539137 0 0.885037 0.479244 0 0.927787 0.38785 0 0.889061 0.471574 0 0.924527 0.395736 0 0.895572 0.45881 0 0.918968 0.408769 0 0.90351 0.442616 0 0.911676 0.425146 0 1.05765 0.600799 0 1.08642 0.484754 0 1.06044 0.591011 0 1.08428 0.494722 0 1.06492 0.574745 0 1.08062 0.511212 0 1.07031 0.554144 0 1.07578 0.531965 0 0.906131 0.494106 0 0.946908 0.399689 0 0.909983 0.486177 0 0.943804 0.407831 0 0.916207 0.472985 0 0.938512 0.421288 0 0.923784 0.45625 0 0.931567 0.438202 0 1.03717 0.586438 0 1.06723 0.473296 0 1.04008 0.576901 0 1.06498 0.483019 0 1.04474 0.561048 0 1.06114 0.499103 0 1.05036 0.540966 0 1.05608 0.519341 0 0.938341 0.516813 0 0.976201 0.417782 0 0.941937 0.508488 0 0.973329 0.426313 0 0.947738 0.494641 0 0.968432 0.440419 0 0.954781 0.477082 0 0.962001 0.458152 0 1.00883 0.566506 0 1.04089 0.457398 0 1.01192 0.557316 0 1.03848 0.46678 0 1.01687 0.542037 0 1.03437 0.482299 0 1.02286 0.522676 0 1.02896 0.501822 0 0.974601 0.542382 0 1.00936 0.438162 0 0.977925 0.533612 0 1.00673 0.447132 0 0.983274 0.519028 0 1.00226 0.461966 0 0.989751 0.500541 0 0.996371 0.480621 0 1.7738 1.06799 0 1.79158 0.86117 0 1.77557 1.05042 0 1.79032 0.878835 0 1.7784 1.02129 0 1.78813 0.908092 0 1.78178 0.984494 0 1.78518 0.944979 0 1.57828 0.942633 0 1.59779 0.759746 0 1.58022 0.927113 0 1.59641 0.775374 0 1.58332 0.901365 0 1.594 0.801257 0 1.58703 0.868829 0 1.59076 0.833885 0 1.75724 1.05738 0 1.77516 0.852582 0 1.75903 1.03999 0 1.77389 0.870075 0 1.76188 1.01114 0 1.77169 0.899048 0 1.76529 0.974704 0 1.76871 0.935575 0 1.59506 0.953392 0 1.6144 0.768446 0 1.59698 0.937696 0 1.61303 0.78425 0 1.60006 0.911657 0 1.61065 0.810423 0 1.60374 0.878755 0 1.60743 0.843417 0 1.72978 1.03977 0 1.74792 0.838333 0 1.73158 1.02267 0 1.74664 0.85554 0 1.73447 0.9943 0 1.7444 0.88404 0 1.73792 0.958457 0 1.74139 0.919969 0 1.6228 0.971184 0 1.64188 0.782836 0 1.6247 0.955198 0 1.64053 0.798929 0 1.62773 0.928678 0 1.63818 0.825582 0 1.63136 0.895169 0 1.63501 0.859181 0 1.69505 1.01751 0 1.71349 0.820317 0 1.69689 1.00077 0 1.71218 0.837163 0 1.69982 0.973 0 1.70991 0.865063 0 1.70333 0.937915 0 1.70685 0.900237 0 1.65771 0.993573 0 1.67648 0.800947 0 1.65958 0.977221 0 1.67515 0.817404 0 1.66257 0.950097 0 1.67284 0.84466 0 1.66614 0.915826 0 1.66972 0.879021 0 1.80506 0.206881 0 1.79627 0.00415656 0 1.80455 0.189492 0 1.79726 0.0212997 0 1.8036 0.160722 0 1.79879 0.0497632 0 1.80223 0.124505 0 1.80055 0.0857733 0 1.61328 0.181722 0 1.60422 0.00364302 0 1.61276 0.166419 0 1.60524 0.0186719 0 1.61179 0.141111 0 1.60683 0.0436382 0 1.61039 0.109271 0 1.60865 0.0752465 0 1.78875 0.204745 0 1.77991 0.00411291 0 1.78824 0.187533 0 1.7809 0.0210763 0 1.78728 0.159057 0 1.78244 0.0492428 0 1.78591 0.123211 0 1.78422 0.084879 0 1.62965 0.183873 0 1.62059 0.00368687 0 1.62913 0.168392 0 1.62161 0.0188963 0 1.62816 0.142787 0 1.62319 0.0441614 0 1.62675 0.110573 0 1.62502 0.076146 0 1.76171 0.201203 0 1.7528 0.00404054 0 1.76119 0.184284 0 1.7538 0.020706 0 1.76023 0.156295 0 1.75535 0.0483798 0 1.75885 0.121065 0 1.75714 0.0833961 0 1.65676 0.187435 0 1.6477 0.0037595 0 1.65624 0.171658 0 1.64872 0.019268 0 1.65527 0.145563 0 1.6503 0.0450278 0 1.65386 0.112729 0 1.65212 0.0776353 0 1.72758 0.196728 0 1.71859 0.00394915 0 1.72706 0.180181 0 1.7196 0.0202384 0 1.72609 0.152807 0 1.72117 0.04729 0 1.72469 0.118355 0 1.72297 0.0815232 0 1.69095 0.191923 0 1.68191 0.00385105 0 1.69042 0.175773 0 1.68292 0.0197365 0 1.68945 0.149061 0 1.6845 0.04612 0 1.68804 0.115446 0 1.68632 0.0795125 0 0.341134 1.12611 0 0.456581 1.10798 0 0.350943 1.12482 0 0.446764 1.10972 0 0.367226 1.12255 0 0.430472 1.11254 0 0.387803 1.11949 0 0.409888 1.11598 0 0.267666 0.96855 0 0.354273 0.940984 0 0.275062 0.966522 0 0.346925 0.943653 0 0.287315 0.963031 0 0.334732 0.947945 0 0.302768 0.958392 0 0.319321 0.953126 0 0.336212 1.11588 0 0.449877 1.09721 0 0.345871 1.11454 0 0.440212 1.09899 0 0.361904 1.1122 0 0.424173 1.1019 0 0.382164 1.10904 0 0.403907 1.10543 0 0.275715 0.98633 0 0.365648 0.959895 0 0.283388 0.984388 0 0.358015 0.962446 0 0.296105 0.981039 0 0.345348 0.966555 0 0.312148 0.976583 0 0.32934 0.971525 0 0.327679 1.09805 0 0.438186 1.0784 0 0.337072 1.09664 0 0.428791 1.08028 0 0.352662 1.09416 0 0.4132 1.08333 0 0.372361 1.09083 0 0.393499 1.08704 0 0.288144 1.01356 0 0.383156 0.988833 0 0.296241 1.01174 0 0.375087 0.991207 0 0.309666 1.00861 0 0.361697 0.995042 0 0.32661 1.00443 0 0.344776 0.999693 0 0.316083 1.07361 0 0.422177 1.05255 0 0.325107 1.07208 0 0.41316 1.05456 0 0.340079 1.06942 0 0.398194 1.05782 0 0.358993 1.06586 0 0.379285 1.0618 0 0.302372 1.04435 0 0.403095 1.02153 0 0.310946 1.04268 0 0.394537 1.02371 0 0.325168 1.03979 0 0.380335 1.02724 0 0.343127 1.03593 0 0.362388 1.03154 0 0.631355 1.80488 0 0.835111 1.7965 0 0.648696 1.80438 0 0.817746 1.79743 0 0.677444 1.80347 0 0.788968 1.79889 0 0.713731 1.80216 0 0.75266 1.80056 0 0.553033 1.6125 0 0.732953 1.6032 0 0.568338 1.61194 0 0.71762 1.60423 0 0.593716 1.61092 0 0.692207 1.60583 0 0.625759 1.60946 0 0.660141 1.60768 0 0.624748 1.78856 0 0.82647 1.78012 0 0.641916 1.78806 0 0.809278 1.78106 0 0.670375 1.78714 0 0.780787 1.78252 0 0.7063 1.78582 0 0.744841 1.78421 0 0.559781 1.62897 0 0.741727 1.61976 0 0.575259 1.62842 0 0.726221 1.62078 0 0.600923 1.62741 0 0.700522 1.62237 0 0.633327 1.62596 0 0.668095 1.6242 0 0.613776 1.76149 0 0.812129 1.75294 0 0.630656 1.76098 0 0.795223 1.75389 0 0.658639 1.76005 0 0.767208 1.75537 0 0.693964 1.75871 0 0.731862 1.75708 0 0.570928 1.65622 0 0.756233 1.64717 0 0.586693 1.65568 0 0.74044 1.64817 0 0.612832 1.65469 0 0.714267 1.64973 0 0.645833 1.65327 0 0.681242 1.65154 0 0.599888 1.72729 0 0.793991 1.71859 0 0.616405 1.72677 0 0.777448 1.71955 0 0.643788 1.72582 0 0.750032 1.72106 0 0.678355 1.72446 0 0.715442 1.7228 0 0.584934 1.69055 0 0.774482 1.68167 0 0.601062 1.69002 0 0.758328 1.68265 0 0.6278 1.68905 0 0.731555 1.68419 0 0.661557 1.68766 0 0.697775 1.68596 0 1.47445 1.73312 0 1.67131 1.70149 0 1.49136 1.73064 0 1.65468 1.7044 0 1.51932 1.72644 0 1.62707 1.70913 0 1.55451 1.72099 0 1.59212 1.71495 0 1.29538 1.53381 0 1.46737 1.49933 0 1.31018 1.5311 0 1.45287 1.5025 0 1.33465 1.52652 0 1.42879 1.50765 0 1.36542 1.52057 0 1.39828 1.51399 0 1.4593 1.71626 0 1.65406 1.68439 0 1.47603 1.71376 0 1.63761 1.68732 0 1.5037 1.70953 0 1.6103 1.69209 0 1.53851 1.70404 0 1.57572 1.69795 0 1.31076 1.55092 0 1.48488 1.51669 0 1.32574 1.54823 0 1.47021 1.51984 0 1.35051 1.54369 0 1.44582 1.52495 0 1.38166 1.53778 0 1.41493 1.53124 0 1.43416 1.68828 0 1.62543 1.65601 0 1.4506 1.68575 0 1.60928 1.65898 0 1.47777 1.68146 0 1.58246 1.6638 0 1.51197 1.6759 0 1.54851 1.66974 0 1.33619 1.57922 0 1.51384 1.5454 0 1.35147 1.57657 0 1.49886 1.54851 0 1.37673 1.57208 0 1.47397 1.55356 0 1.40851 1.56624 0 1.44245 1.55978 0 1.40237 1.65289 0 1.58922 1.62012 0 1.41843 1.65032 0 1.57345 1.62313 0 1.44499 1.64597 0 1.54726 1.62803 0 1.4784 1.64032 0 1.5141 1.63406 0 1.36817 1.61482 0 1.55027 1.58151 0 1.38383 1.61221 0 1.53491 1.58457 0 1.40972 1.60779 0 1.5094 1.58956 0 1.44229 1.60204 0 1.47708 1.59568 0 2.76927 1.70474 0 2.78039 1.37668 0 2.77034 1.67683 0 2.77957 1.40466 0 2.77207 1.63056 0 2.77816 1.45102 0 2.77416 1.57215 0 2.77628 1.50948 0 2.38581 1.45971 0 2.39947 1.17842 0 2.38715 1.43579 0 2.39848 1.20243 0 2.3893 1.39614 0 2.39677 1.24219 0 2.39188 1.34607 0 2.39449 1.29233 0 2.7365 1.68381 0 2.74785 1.35975 0 2.73759 1.65624 0 2.74701 1.38739 0 2.73936 1.61053 0 2.74557 1.43319 0 2.74149 1.55284 0 2.74366 1.49094 0 2.41841 1.48055 0 2.43185 1.19529 0 2.41972 1.45629 0 2.43088 1.21963 0 2.42183 1.41608 0 2.42919 1.25996 0 2.42437 1.3653 0 2.42694 1.3108 0 2.68224 1.64915 0 2.69396 1.33172 0 2.68337 1.62214 0 2.6931 1.3588 0 2.6852 1.57738 0 2.69162 1.40366 0 2.6874 1.52087 0 2.68964 1.46023 0 2.47243 1.51508 0 2.48554 1.22325 0 2.47371 1.49027 0 2.48459 1.24815 0 2.47577 1.44912 0 2.48294 1.2894 0 2.47824 1.39717 0 2.48074 1.34142 0 2.61387 1.60547 0 2.62605 1.29639 0 2.61505 1.57918 0 2.62516 1.32276 0 2.61695 1.53559 0 2.62362 1.36644 0 2.61925 1.48057 0 2.62157 1.42153 0 2.54064 1.55868 0 2.55331 1.25853 0 2.54188 1.53315 0 2.55239 1.28414 0 2.54386 1.49083 0 2.55079 1.32656 0 2.54625 1.4374 0 2.54867 1.38006 0 2.75427 2.0452 0 2.76874 1.71829 0 2.75563 2.0174 0 2.76763 1.74619 0 2.75783 1.97131 0 2.76575 1.7924 0 2.76051 1.91312 0 2.76328 1.85067 0 2.36681 1.75112 0 2.38515 1.47132 0 2.36854 1.72736 0 2.38376 1.49522 0 2.37135 1.68794 0 2.38139 1.5348 0 2.37477 1.63816 0 2.37827 1.5847 0 2.72114 2.02006 0 2.73595 1.69718 0 2.72254 1.99261 0 2.73482 1.72474 0 2.72479 1.94709 0 2.73289 1.77039 0 2.72753 1.88962 0 2.73036 1.82794 0 2.39973 1.77612 0 2.41775 1.49232 0 2.40144 1.75201 0 2.41639 1.51656 0 2.4042 1.71203 0 2.41406 1.55671 0 2.40755 1.66153 0 2.41099 1.60732 0 2.66631 1.97845 0 2.68168 1.66225 0 2.66775 1.95157 0 2.6805 1.68924 0 2.67009 1.907 0 2.6785 1.73395 0 2.67295 1.85072 0 2.67588 1.79032 0 2.45432 1.81755 0 2.4718 1.52713 0 2.45597 1.79288 0 2.47047 1.55193 0 2.45864 1.75196 0 2.46821 1.59301 0 2.46189 1.70028 0 2.46523 1.6448 0 2.59722 1.92601 0 2.61328 1.61823 0 2.59873 1.89985 0 2.61206 1.6445 0 2.60118 1.85648 0 2.60997 1.68803 0 2.60417 1.8017 0 2.60723 1.7429 0 2.52323 1.86986 0 2.54003 1.57107 0 2.52482 1.84447 0 2.53876 1.59658 0 2.52738 1.80236 0 2.53658 1.63884 0 2.53051 1.74919 0 2.53372 1.69211 0 3.57494 2.6588 0 3.58447 1.80321 0 3.5759 2.58597 0 3.58381 1.87616 0 3.57743 2.46526 0 3.58265 1.99702 0 3.57925 2.31291 0 3.58107 2.14947 0 3.1784 2.35897 0 3.19617 1.60066 0 3.18022 2.29449 0 3.19496 1.66538 0 3.18311 2.18758 0 3.19283 1.77257 0 3.18653 2.0526 0 3.18992 1.90774 0 3.54098 2.63312 0 3.55125 1.78589 0 3.54202 2.56101 0 3.55054 1.85813 0 3.54367 2.44149 0 3.54929 1.97781 0 3.54563 2.29063 0 3.54759 2.12878 0 3.21199 2.38437 0 3.2291 1.61785 0 3.21374 2.31919 0 3.22793 1.68326 0 3.21652 2.21111 0 3.22588 1.7916 0 3.21981 2.07467 0 3.22308 1.92824 0 3.48477 2.59063 0 3.49625 1.7572 0 3.48593 2.5197 0 3.49546 1.82828 0 3.48778 2.40214 0 3.49406 1.94602 0 3.48998 2.25374 0 3.49217 2.09454 0 3.26774 2.42653 0 3.28373 1.64635 0 3.26937 2.36017 0 3.28264 1.71292 0 3.27196 2.25016 0 3.28071 1.82318 0 3.27504 2.11128 0 3.27809 1.96224 0 3.41398 2.5371 0 3.42696 1.72106 0 3.41529 2.46767 0 3.42606 1.79067 0 3.41739 2.35257 0 3.42449 1.90597 0 3.41988 2.20728 0 3.42235 2.0514 0 3.33822 2.47982 0 3.35278 1.68237 0 3.3397 2.41198 0 3.35178 1.7504 0 3.34205 2.29952 0 3.35002 1.86309 0 3.34485 2.15755 0 3.34763 2.00522 0 3.59049 0.875426 0 3.59207 0.0177377 0 3.59078 0.802376 0 3.59208 0.0908238 0 3.59118 0.681318 0 3.59205 0.211928 0 3.59159 0.528558 0 3.59189 0.364719 0 3.20657 0.777147 0 3.208 0.0157405 0 3.207 0.712287 0 3.20818 0.0806014 0 3.20758 0.604801 0 3.20836 0.188088 0 3.2081 0.469173 0 3.20837 0.323718 0 3.5577 0.867038 0 3.55934 0.0175677 0 3.55801 0.794689 0 3.55937 0.0899536 0 3.55844 0.674791 0 3.55934 0.209897 0 3.55887 0.523495 0 3.55918 0.361225 0 3.2392 0.785504 0 3.24071 0.0159109 0 3.23962 0.71995 0 3.24088 0.0814731 0 3.2402 0.611312 0 3.24103 0.19012 0 3.24071 0.474229 0 3.241 0.327211 0 3.5034 0.853145 0 3.50512 0.017286 0 3.50373 0.781956 0 3.50516 0.0885113 0 3.5042 0.663979 0 3.50514 0.206533 0 3.50466 0.515107 0 3.50499 0.355436 0 3.29329 0.799359 0 3.29493 0.0161931 0 3.2937 0.732653 0 3.29506 0.0829172 0 3.29427 0.622105 0 3.29517 0.193487 0 3.29479 0.482608 0 3.2951 0.332998 0 3.43495 0.835626 0 3.43671 0.0169304 0 3.43531 0.765898 0 3.43677 0.0866912 0 3.43582 0.650343 0 3.43678 0.202287 0 3.43631 0.504526 0 3.43665 0.348133 0 3.36161 0.816852 0 3.36334 0.016549 0 3.36199 0.748689 0 3.36343 0.0847386 0 3.36254 0.635727 0 3.36349 0.197734 0 3.36305 0.493182 0 3.36338 0.340301 0 1.02687 2.79002 0 1.35365 2.78372 0 1.05472 2.78959 0 1.32582 2.78436 0 1.10086 2.78884 0 1.2797 2.78539 0 1.15908 2.7878 0 1.2215 2.7866 0 0.874866 2.41046 0 1.15421 2.4034 0 0.898666 2.41001 0 1.13042 2.40415 0 0.938105 2.4092 0 1.09099 2.40534 0 0.987868 2.40807 0 1.04123 2.40672 0 1.01391 2.75762 0 1.33662 2.75123 0 1.04141 2.75718 0 1.30914 2.75188 0 1.08698 2.75642 0 1.2636 2.75292 0 1.14447 2.75537 0 1.20612 2.75415 0 0.887811 2.44275 0 1.17119 2.43574 0 0.911955 2.4423 0 1.14705 2.43649 0 0.951963 2.44149 0 1.10705 2.43766 0 1.00244 2.44037 0 1.05658 2.43903 0 0.992431 2.70395 0 1.30843 2.69744 0 1.01936 2.70352 0 1.28152 2.69811 0 1.06398 2.70274 0 1.23692 2.69918 0 1.12028 2.70168 0 1.18064 2.70043 0 0.90926 2.49627 0 1.19931 2.48935 0 0.933974 2.49582 0 1.17461 2.49008 0 0.974926 2.49502 0 1.13367 2.49123 0 1.0266 2.4939 0 1.08201 2.49258 0 0.965351 2.6363 0 1.27289 2.62964 0 0.991558 2.63586 0 1.2467 2.63034 0 1.03498 2.63507 0 1.2033 2.63143 0 1.08977 2.63399 0 1.14852 2.63272 0 0.936323 2.56382 0 1.23481 2.55701 0 0.961756 2.56337 0 1.20939 2.55773 0 1.0039 2.56257 0 1.16726 2.55885 0 1.05708 2.56147 0 1.1141 2.56017 0 0.68647 2.79368 0 1.01335 2.79022 0 0.714314 2.79349 0 0.985503 2.79063 0 0.760458 2.79314 0 0.939354 2.79125 0 0.818682 2.79261 0 0.881125 2.79195 0 0.584166 2.41376 0 0.863315 2.41067 0 0.607927 2.41364 0 0.839518 2.41109 0 0.647311 2.41339 0 0.800088 2.41171 0 0.697021 2.41297 0 0.750348 2.41238 0 0.677753 2.76126 0 1.00056 2.75782 0 0.705249 2.76108 0 0.973053 2.75822 0 0.750815 2.76073 0 0.927478 2.75885 0 0.808311 2.76021 0 0.869976 2.75955 0 0.592886 2.44609 0 0.876093 2.44296 0 0.616995 2.44597 0 0.851951 2.44337 0 0.656954 2.44571 0 0.811951 2.444 0 0.707387 2.44527 0 0.761489 2.44468 0 0.663311 2.70757 0 0.97936 2.70416 0 0.690229 2.7074 0 0.952431 2.70457 0 0.734839 2.70706 0 0.907808 2.70519 0 0.791132 2.70655 0 0.851506 2.7059 0 0.607332 2.49968 0 0.897265 2.49648 0 0.632016 2.49955 0 0.872552 2.49689 0 0.672928 2.49927 0 0.831605 2.49751 0 0.724561 2.49881 0 0.779948 2.4982 0 0.645092 2.63987 0 0.952631 2.63651 0 0.671282 2.63971 0 0.926424 2.63692 0 0.714687 2.63939 0 0.882999 2.63755 0 0.769462 2.63889 0 0.828211 2.63825 0 0.625553 2.56731 0 0.923978 2.56403 0 0.650964 2.56716 0 0.898545 2.56444 0 0.693079 2.56686 0 0.856403 2.56506 0 0.746227 2.56639 0 0.803235 2.56576 0 0.909154 3.59064 0 1.76468 3.58596 0 0.982066 3.59037 0 1.69183 3.58649 0 1.10288 3.58987 0 1.57108 3.58731 0 1.25529 3.58914 0 1.41872 3.58825 0 0.805262 3.20681 0 1.56315 3.19886 0 0.86986 3.20639 0 1.49862 3.1998 0 0.976896 3.20559 0 1.39168 3.20125 0 1.11193 3.2044 0 1.25671 3.20288 0 0.900287 3.55787 0 1.74745 3.55285 0 0.972488 3.55758 0 1.67531 3.55342 0 1.09212 3.55704 0 1.55575 3.5543 0 1.24305 3.55626 0 1.40487 3.55531 0 0.814097 3.23943 0 1.58025 3.2317 0 0.8794 3.23902 0 1.51502 3.23261 0 0.987603 3.23824 0 1.40691 3.23401 0 1.12411 3.23707 0 1.27047 3.23559 0 0.8856 3.50358 0 1.71892 3.49804 0 0.956623 3.50326 0 1.64796 3.49866 0 1.0743 3.50268 0 1.53036 3.49964 0 1.22277 3.50182 0 1.38195 3.50076 0 0.828743 3.29351 0 1.60862 3.28617 0 0.895216 3.29312 0 1.54222 3.28703 0 1.00536 3.29237 0 1.43217 3.28835 0 1.1443 3.29125 0 1.29328 3.28985 0 0.86708 3.43514 0 1.68296 3.42896 0 0.93662 3.43479 0 1.61349 3.42967 0 1.05184 3.43414 0 1.49835 3.43076 0 1.1972 3.4332 0 1.35305 3.43202 0 0.847234 3.36182 0 1.64446 3.35501 0 0.915186 3.36144 0 1.57658 3.3558 0 1.02778 3.36074 0 1.46408 3.35701 0 1.16981 3.3597 0 1.3221 3.3584 0 2.6899 3.57722 0 3.54303 3.56573 0 2.76265 3.57636 0 3.47041 3.56684 0 2.88316 3.5749 0 3.35005 3.56862 0 3.03517 3.57296 0 3.19814 3.57077 0 2.38198 3.1827 0 3.13542 3.16078 0 2.44629 3.18109 0 3.07137 3.16291 0 2.55281 3.17833 0 2.96517 3.16633 0 2.68713 3.17464 0 2.83107 3.17046 0 2.66354 3.54343 0 3.50811 3.53104 0 2.73556 3.54252 0 3.43623 3.53224 0 2.85487 3.54094 0 3.31708 3.53416 0 3.00537 3.53885 0 3.1667 3.53648 0 2.40807 3.21613 0 3.16995 3.19508 0 2.47309 3.21458 0 3.10517 3.19712 0 2.5808 3.21192 0 2.99777 3.2004 0 2.71662 3.20838 0 2.86216 3.20436 0 2.6199 3.48752 0 3.45033 3.47363 0 2.69072 3.4865 0 3.37966 3.47497 0 2.80805 3.48473 0 3.26252 3.47713 0 2.95603 3.48239 0 3.11467 3.47974 0 2.45137 3.2716 0 3.22724 3.252 0 2.51758 3.27016 0 3.16126 3.2539 0 2.62725 3.26768 0 3.05187 3.25695 0 2.76555 3.26438 0 2.91376 3.26064 0 2.56493 3.41709 0 3.37755 3.40133 0 2.63425 3.41593 0 3.30841 3.40285 0 2.74908 3.41393 0 3.1938 3.4053 0 2.8939 3.41127 0 3.04913 3.40826 0 2.50611 3.34172 0 3.29968 3.32397 0 2.57381 3.34042 0 3.23218 3.32569 0 2.68596 3.33817 0 3.12027 3.32845 0 2.82741 3.33518 0 2.979 3.33178 0 1.11961 0.362249 0 1.13216 0.243285 0 1.12099 0.352083 0 1.13141 0.253374 0 1.12315 0.335245 0 1.13003 0.270118 0 1.12565 0.314017 0 1.12806 0.291281 0 0.963052 0.286693 0 0.98558 0.192823 0 0.965344 0.27869 0 0.984029 0.2008 0 0.968987 0.265426 0 0.98131 0.214033 0 0.973311 0.248689 0 0.977611 0.230748 0 1.10924 0.357476 0 1.12232 0.240083 0 1.11067 0.347446 0 1.12153 0.25004 0 1.11291 0.330831 0 1.12008 0.266563 0 1.11551 0.309884 0 1.11801 0.287448 0 0.980474 0.295321 0 1.00175 0.198565 0 0.98265 0.287069 0 1.0003 0.206784 0 0.986107 0.273393 0 0.997748 0.22042 0 0.990202 0.256139 0 0.994265 0.237646 0 1.09127 0.349084 0 1.10532 0.234458 0 1.09278 0.339292 0 1.10445 0.244181 0 1.09517 0.323071 0 1.10287 0.260317 0 1.09795 0.302618 0 1.10064 0.280711 0 1.00724 0.308515 0 1.02663 0.207354 0 1.00924 0.299883 0 1.02534 0.215943 0 1.01242 0.285579 0 1.02304 0.230195 0 1.01617 0.267537 0 1.01988 0.248202 0 1.06678 0.337451 0 1.08228 0.226672 0 1.06843 0.327991 0 1.08129 0.236071 0 1.07103 0.312317 0 1.07952 0.251668 0 1.07407 0.292552 0 1.07703 0.27138 0 1.03767 0.323393 0 1.05501 0.217278 0 1.03948 0.314334 0 1.05388 0.226285 0 1.04235 0.299325 0 1.05185 0.241229 0 1.04573 0.280395 0 1.04905 0.260114 0 1.40587 0.480165 0 1.41212 0.322973 0 1.40669 0.46673 0 1.41187 0.336307 0 1.40793 0.444479 0 1.41134 0.358433 0 1.40928 0.416431 0 1.41047 0.386395 0 1.24673 0.416551 0 1.25518 0.279882 0 1.24774 0.404867 0 1.25476 0.291471 0 1.24931 0.385517 0 1.25394 0.310701 0 1.25106 0.361127 0 1.25268 0.33501 0 1.39071 0.47416 0 1.39711 0.318899 0 1.39154 0.460889 0 1.39685 0.332069 0 1.3928 0.438911 0 1.39631 0.353921 0 1.39419 0.411207 0 1.39541 0.381539 0 1.25834 0.421258 0 1.26658 0.283065 0 1.25934 0.409444 0 1.26617 0.294782 0 1.26087 0.389878 0 1.26538 0.314228 0 1.26259 0.365216 0 1.26416 0.338808 0 1.36611 0.464402 0 1.37279 0.31228 0 1.36697 0.451398 0 1.37251 0.325183 0 1.36827 0.429863 0 1.37192 0.346592 0 1.36971 0.402719 0 1.37098 0.373651 0 1.27851 0.429399 0 1.2864 0.288571 0 1.27948 0.417359 0 1.28602 0.300513 0 1.28096 0.397421 0 1.28527 0.320329 0 1.28261 0.372289 0 1.28412 0.345378 0 1.33614 0.452474 0 1.34318 0.304196 0 1.33703 0.439799 0 1.34287 0.316771 0 1.33839 0.418807 0 1.34224 0.337638 0 1.33989 0.392347 0 1.34123 0.364013 0 1.30549 0.440232 0 1.31296 0.295904 0 1.30642 0.427894 0 1.31262 0.308143 0 1.30784 0.40746 0 1.31193 0.328453 0 1.30942 0.381704 0 1.31084 0.354125 0 1.4108 0.154979 0 1.40261 0.00309908 0 1.41035 0.1419 0 1.40355 0.0158877 0 1.40951 0.12028 0 1.40502 0.0371451 0 1.40826 0.0931001 0 1.40669 0.06408 0 1.25603 0.134067 0 1.25058 0.00267533 0 1.25578 0.122733 0 1.25124 0.0137179 0 1.25526 0.104005 0 1.25225 0.0320825 0 1.25445 0.0804741 0 1.2534 0.0553676 0 1.39593 0.152998 0 1.3879 0.00305889 0 1.3955 0.140084 0 1.38883 0.0156819 0 1.39467 0.118738 0 1.39027 0.0366651 0 1.39345 0.0919036 0 1.39191 0.0632541 0 1.2672 0.135609 0 1.26143 0.00270653 0 1.26692 0.124146 0 1.26212 0.0138777 0 1.26637 0.105205 0 1.26319 0.0324553 0 1.26551 0.0814044 0 1.2644 0.0560093 0 1.37186 0.149783 0 1.36411 0.00299365 0 1.37145 0.137137 0 1.36501 0.0153479 0 1.37066 0.116235 0 1.3664 0.0358859 0 1.36948 0.0899611 0 1.36799 0.0619135 0 1.28666 0.138278 0 1.2804 0.00276054 0 1.28635 0.126592 0 1.28114 0.0141543 0 1.28574 0.107281 0 1.2823 0.0331008 0 1.28481 0.0830149 0 1.2836 0.0571204 0 1.34261 0.145857 0 1.33527 0.00291407 0 1.34222 0.133539 0 1.33612 0.0149404 0 1.34148 0.113179 0 1.33745 0.0349352 0 1.34037 0.0875904 0 1.33897 0.0602775 0 1.3128 0.141833 0 1.30598 0.00283254 0 1.31246 0.129851 0 1.30679 0.014523 0 1.31178 0.110048 0 1.30803 0.0339611 0 1.31075 0.0851611 0 1.30944 0.0586012 0 0.579845 1.08304 0 0.690608 1.05199 0 0.589409 1.08076 0 0.681308 1.05505 0 0.605208 1.07685 0 0.665838 1.05994 0 0.625053 1.07167 0 0.646217 1.06578 0 0.4466 0.901857 0 0.529236 0.857031 0 0.453757 0.898364 0 0.522326 0.861176 0 0.465574 0.892443 0 0.510817 0.867911 0 0.480403 0.884733 0 0.496198 0.87617 0 0.571227 1.07163 0 0.680225 1.03993 0 0.580642 1.0693 0 0.671077 1.04305 0 0.596193 1.0653 0 0.655857 1.04803 0 0.615724 1.06001 0 0.636551 1.05399 0 0.461549 0.922689 0 0.547407 0.879688 0 0.468984 0.919363 0 0.540225 0.883699 0 0.481259 0.913718 0 0.528265 0.890199 0 0.496664 0.906351 0 0.513074 0.898144 0 0.556151 1.05158 0 0.662036 1.01864 0 0.5653 1.04915 0 0.653154 1.02187 0 0.580413 1.04499 0 0.638375 1.02703 0 0.59939 1.03947 0 0.619624 1.03322 0 0.484509 0.954463 0 0.575291 0.914167 0 0.492367 0.951383 0 0.567693 0.917977 0 0.505342 0.946144 0 0.555042 0.924126 0 0.521626 0.939283 0 0.538976 0.931602 0 0.535412 1.0238 0 0.636974 0.988949 0 0.544193 1.02121 0 0.628461 0.992336 0 0.558695 1.01677 0 0.614293 0.99776 0 0.576903 1.01091 0 0.596311 1.00428 0 0.510574 0.990169 0 0.606901 0.952772 0 0.518907 0.987349 0 0.598833 0.95636 0 0.532668 0.98254 0 0.585402 0.962127 0 0.549943 0.976216 0 0.568352 0.969098 0 0.789433 1.37797 0 0.941147 1.35362 0 0.802445 1.37615 0 0.928314 1.35595 0 0.823973 1.37304 0 0.907009 1.35971 0 0.851074 1.36892 0 0.880059 1.36427 0 0.678388 1.21575 0 0.808691 1.18895 0 0.689597 1.21377 0 0.797702 1.19155 0 0.708129 1.21037 0 0.779445 1.19573 0 0.731433 1.20586 0 0.756327 1.20075 0 0.779091 1.36253 0 0.928821 1.33797 0 0.791936 1.3607 0 0.916159 1.34033 0 0.813186 1.35756 0 0.895136 1.34412 0 0.839935 1.35341 0 0.868541 1.34872 0 0.686767 1.22759 0 0.818695 1.201 0 0.698113 1.22562 0 0.807566 1.20358 0 0.716871 1.22224 0 0.789077 1.20771 0 0.740464 1.21777 0 0.765668 1.2127 0 0.76224 1.33748 0 0.908734 1.31257 0 0.774812 1.33562 0 0.89635 1.31496 0 0.795608 1.33244 0 0.875787 1.31881 0 0.821783 1.32823 0 0.84977 1.32347 0 0.701172 1.24817 0 0.835891 1.22192 0 0.712753 1.24622 0 0.824521 1.22445 0 0.731901 1.24287 0 0.805635 1.22853 0 0.755988 1.23845 0 0.781725 1.23345 0 0.741557 1.30693 0 0.884072 1.28159 0 0.753793 1.30504 0 0.87203 1.28403 0 0.774032 1.3018 0 0.852033 1.28795 0 0.799501 1.29752 0 0.826728 1.29269 0 0.720202 1.27568 0 0.8586 1.24988 0 0.732092 1.27376 0 0.846913 1.25236 0 0.751755 1.27047 0 0.827502 1.25636 0 0.776494 1.26612 0 0.802934 1.26119 0 1.10237 1.3197 0 1.24737 1.2816 0 1.11489 1.3167 0 1.23519 1.28509 0 1.13557 1.31163 0 1.21493 1.29078 0 1.16154 1.30506 0 1.18925 1.29778 0 0.94619 1.15047 0 1.06879 1.10686 0 0.956816 1.14704 0 1.05854 1.11085 0 0.974355 1.14124 0 1.04147 1.11735 0 0.996355 1.1337 0 1.01978 1.12536 0 1.08786 1.30374 0 1.23081 1.26528 0 1.10021 1.30071 0 1.21881 1.26881 0 1.1206 1.2956 0 1.19884 1.27455 0 1.14621 1.28896 0 1.17352 1.28161 0 0.958013 1.16299 0 1.08234 1.11998 0 0.968785 1.15961 0 1.07194 1.12391 0 0.986566 1.15388 0 1.05463 1.13033 0 1.00887 1.14645 0 1.03263 1.13822 0 1.06421 1.27779 0 1.20381 1.2387 0 1.07627 1.27472 0 1.19209 1.24228 0 1.09619 1.26951 0 1.1726 1.24811 0 1.12121 1.26276 0 1.14788 1.25529 0 0.978323 1.18466 0 1.10561 1.14258 0 0.989344 1.18135 0 1.09496 1.14643 0 1.00754 1.17574 0 1.07722 1.1527 0 1.03037 1.16847 0 1.05469 1.16043 0 1.03515 1.24606 0 1.17061 1.2061 0 1.04686 1.24292 0 1.15925 1.20976 0 1.0662 1.2376 0 1.14035 1.21572 0 1.09048 1.2307 0 1.11637 1.22306 0 1.00512 1.21349 0 1.13628 1.17249 0 1.01647 1.21026 0 1.12529 1.17624 0 1.0352 1.2048 0 1.107 1.18235 0 1.05872 1.19772 0 1.08378 1.18988 0 2.78881 1.02069 0 2.79323 0.691565 0 2.78931 0.992655 0 2.79298 0.719607 0 2.79009 0.946198 0 2.79251 0.766075 0 2.79099 0.887576 0 2.79183 0.824704 0 2.40917 0.873029 0 2.41345 0.590874 0 2.40971 0.848985 0 2.41326 0.614899 0 2.41053 0.809141 0 2.41287 0.654717 0 2.41144 0.758872 0 2.41226 0.70497 0 2.75639 1.00809 0 2.76082 0.682987 0 2.7569 0.980403 0 2.76057 0.710686 0 2.75769 0.934512 0 2.76011 0.756585 0 2.75858 0.876604 0 2.75943 0.814499 0 2.44146 0.885605 0 2.44577 0.599458 0 2.442 0.861222 0 2.44557 0.623824 0 2.44282 0.820817 0 2.44518 0.664209 0 2.44373 0.769838 0 2.44455 0.715173 0 2.70271 0.987235 0 2.70715 0.668774 0 2.70323 0.960108 0 2.70691 0.695904 0 2.70402 0.915153 0 2.70645 0.740864 0 2.70493 0.858428 0 2.70578 0.797592 0 2.49498 0.906442 0 2.49933 0.613677 0 2.49552 0.881497 0 2.49913 0.63861 0 2.49633 0.84016 0 2.49871 0.679932 0 2.49725 0.788005 0 2.49808 0.732077 0 2.63504 0.96093 0 2.63947 0.650842 0 2.63557 0.934514 0 2.63924 0.677257 0 2.63637 0.890739 0 2.63879 0.721031 0 2.63728 0.835503 0 2.63813 0.776266 0 2.56254 0.932731 0 2.56694 0.631612 0 2.56307 0.907077 0 2.56672 0.65726 0 2.56388 0.864564 0 2.56629 0.699764 0 2.5648 0.810924 0 2.56564 0.7534 0 2.78079 1.36309 0 2.78856 1.03429 0 2.78157 1.3351 0 2.78802 1.06232 0 2.78283 1.28871 0 2.78708 1.10877 0 2.78432 1.23016 0 2.7858 1.16735 0 2.39993 1.16677 0 2.40889 0.8847 0 2.40087 1.14276 0 2.40831 0.908743 0 2.40236 1.10296 0 2.40726 0.948583 0 2.4041 1.05273 0 2.40581 0.998842 0 2.74825 1.34633 0 2.75614 1.02154 0 2.74905 1.31868 0 2.75559 1.04922 0 2.75032 1.27286 0 2.75464 1.0951 0 2.75184 1.21502 0 2.75335 1.15297 0 2.43232 1.18348 0 2.44119 0.89744 0 2.43324 1.15913 0 2.4406 0.921822 0 2.43471 1.11877 0 2.43956 0.962222 0 2.43643 1.06783 0 2.43813 1.01319 0 2.69437 1.31858 0 2.70245 1.0004 0 2.6952 1.29149 0 2.7019 1.02753 0 2.69651 1.2466 0 2.70093 1.07247 0 2.69806 1.18994 0 2.69961 1.12916 0 2.48599 1.21116 0 2.49471 0.918549 0 2.4869 1.18625 0 2.49413 0.943493 0 2.48833 1.14497 0 2.49311 0.984822 0 2.49002 1.09286 0 2.49169 1.03696 0 2.62648 1.28359 0 2.63478 0.973751 0 2.62733 1.25722 0 2.63422 1.00016 0 2.62868 1.2135 0 2.63323 1.04393 0 2.63029 1.15833 0 2.63187 1.09914 0 2.55375 1.2461 0 2.56227 0.945183 0 2.55463 1.22049 0 2.5617 0.970835 0 2.55603 1.17803 0 2.56069 1.01334 0 2.55768 1.12444 0 2.5593 1.06696 0 3.18675 1.17511 0 3.19057 0.796579 0 3.18715 1.14287 0 3.19033 0.828837 0 3.18779 1.08945 0 3.18988 0.882288 0 3.18854 1.02203 0 3.18927 0.949722 0 2.80455 1.0268 0 2.80897 0.695729 0 2.80505 0.998604 0 2.80871 0.723938 0 2.80583 0.951872 0 2.80824 0.770682 0 2.80672 0.892903 0 2.80756 0.829659 0 3.15406 1.16243 0 3.15797 0.787973 0 3.15448 1.13054 0 3.15772 0.819885 0 3.15513 1.07769 0 3.15727 0.872761 0 3.1559 1.011 0 3.15665 0.939471 0 2.837 1.0394 0 2.84139 0.70431 0 2.83749 1.01086 0 2.84114 0.732862 0 2.83826 0.963565 0 2.84067 0.780174 0 2.83914 0.903881 0 2.83998 0.839868 0 3.09996 1.14145 0 3.10399 0.773719 0 3.10039 1.11013 0 3.10374 0.805057 0 3.10107 1.05823 0 3.10328 0.856983 0 3.10186 0.99274 0 3.10263 0.922494 0 2.8908 1.0603 0 2.89516 0.718532 0 2.89129 1.03119 0 2.8949 0.747653 0 2.89204 0.98295 0 2.89443 0.795909 0 2.89291 0.922079 0 2.89375 0.856792 0 3.03178 1.11501 0 3.03595 0.755746 0 3.03223 1.08441 0 3.03569 0.786361 0 3.03294 1.0337 0 3.03522 0.83709 0 3.03376 0.969719 0 3.03456 0.901091 0 2.95878 1.08668 0 2.96306 0.736483 0 2.95925 1.05686 0 2.9628 0.766325 0 2.95998 1.00743 0 2.96232 0.815773 0 2.96083 0.945056 0 2.96165 0.878159 0 3.18063 1.56889 0 3.18655 1.19075 0 3.18121 1.53669 0 3.18612 1.22299 0 3.18215 1.48333 0 3.18538 1.27639 0 3.18327 1.41599 0 3.1844 1.34376 0 2.79659 1.37123 0 2.8043 1.04049 0 2.79737 1.34308 0 2.80377 1.06868 0 2.79861 1.29641 0 2.80283 1.1154 0 2.80009 1.23751 0 2.80156 1.17433 0 3.14776 1.55198 0 3.15386 1.17791 0 3.14836 1.52013 0 3.15342 1.2098 0 3.14932 1.46735 0 3.15266 1.26263 0 3.15048 1.40073 0 3.15164 1.32928 0 2.82916 1.38801 0 2.83675 1.05326 0 2.82993 1.35951 0 2.83622 1.08179 0 2.83115 1.31228 0 2.8353 1.12908 0 2.8326 1.25267 0 2.83405 1.18872 0 3.09335 1.52399 0 3.09974 1.15665 0 3.09399 1.49272 0 3.09928 1.18797 0 3.095 1.44088 0 3.09849 1.23985 0 3.09621 1.37547 0 3.09743 1.3053 0 2.88319 1.41583 0 2.89056 1.07442 0 2.88393 1.38677 0 2.89005 1.10353 0 2.88512 1.33859 0 2.88915 1.15175 0 2.88652 1.2778 0 2.88793 1.21258 0 3.02482 1.48873 0 3.03155 1.12986 0 3.02549 1.45818 0 3.03108 1.16045 0 3.02656 1.40754 0 3.03025 1.21114 0 3.02784 1.34363 0 3.02913 1.27508 0 2.95147 1.45098 0 2.95854 1.10116 0 2.95218 1.4212 0 2.95804 1.13098 0 2.95331 1.37184 0 2.95718 1.18039 0 2.95465 1.30954 0 2.956 1.24272 0 3.19245 0.38654 0 3.19209 0.00782886 0 3.1925 0.354273 0 3.1922 0.0400881 0 3.19254 0.300804 0 3.19234 0.0935464 0 3.19254 0.233343 0 3.19248 0.161001 0 2.81018 0.337356 0 2.80802 0.0068266 0 2.81012 0.309173 0 2.80833 0.0349589 0 2.80997 0.262481 0 2.80878 0.0815885 0 2.80969 0.203584 0 2.80927 0.140443 0 3.15984 0.38235 0 3.15937 0.00774363 0 3.15988 0.350431 0 3.15949 0.0396519 0 3.15991 0.297541 0 3.15966 0.0925291 0 3.1599 0.23081 0 3.15981 0.159251 0 2.8427 0.341548 0 2.84074 0.00691217 0 2.84266 0.313017 0 2.84103 0.0353967 0 2.84253 0.265749 0 2.84145 0.0826089 0 2.84228 0.206122 0 2.8419 0.142197 0 3.10581 0.375407 0 3.10514 0.00760235 0 3.10584 0.344066 0 3.10529 0.0389287 0 3.10586 0.292133 0 3.10549 0.090843 0 3.10581 0.226612 0 3.10569 0.156352 0 2.89662 0.348492 0 2.89496 0.00705387 0 2.89659 0.319386 0 2.89521 0.0361219 0 2.89649 0.271161 0 2.89559 0.0842991 0 2.89629 0.210326 0 2.89598 0.145102 0 3.03769 0.366648 0 3.03673 0.00742398 0 3.0377 0.336034 0 3.03691 0.0380158 0 3.03769 0.285309 0 3.03716 0.0887144 0 3.0376 0.221313 0 3.03741 0.152692 0 2.96467 0.357253 0 2.96337 0.00723254 0 2.96466 0.32742 0 2.96358 0.0370361 0 2.96461 0.277989 0 2.9639 0.0864304 0 2.96446 0.215629 0 2.96422 0.148766 0 3.19069 0.78092 0 3.19242 0.402202 0 3.19091 0.74866 0 3.19235 0.434469 0 3.19126 0.6952 0 3.1922 0.487938 0 3.19163 0.627744 0 3.19196 0.5554 0 2.80908 0.682038 0 2.8102 0.351036 0 2.8093 0.65383 0 2.81023 0.379224 0 2.80961 0.60709 0 2.81022 0.425939 0 2.80991 0.548121 0 2.81013 0.48489 0 3.15809 0.772483 0 3.15981 0.397843 0 3.15832 0.740569 0 3.15974 0.429762 0 3.15866 0.687684 0 3.1596 0.482654 0 3.15904 0.620954 0 3.15937 0.549389 0 2.84151 0.690451 0 2.84272 0.355397 0 2.84173 0.6619 0 2.84274 0.383931 0 2.84205 0.614589 0 2.84271 0.43122 0 2.84237 0.5549 0 2.8426 0.490895 0 3.10411 0.758508 0 3.10579 0.39062 0 3.10434 0.727168 0 3.10574 0.421962 0 3.10469 0.675235 0 3.10561 0.473899 0 3.10506 0.609706 0 3.10538 0.53943 0 2.89528 0.704396 0 2.89662 0.362621 0 2.8955 0.675274 0 2.89662 0.391731 0 2.89583 0.627018 0 2.89657 0.439972 0 2.89617 0.566134 0 2.89643 0.500845 0 3.03607 0.740885 0 3.03767 0.381507 0 3.0363 0.710269 0 3.03763 0.412123 0 3.03665 0.659534 0 3.03752 0.462855 0 3.03701 0.595519 0 3.03732 0.526869 0 2.96318 0.721998 0 2.96466 0.371735 0 2.96341 0.692156 0 2.96464 0.40157 0 2.96375 0.642705 0 2.96456 0.451013 0 2.9641 0.580311 0 2.96438 0.513401 0 1.70697 2.77379 0 2.03252 2.76176 0 1.73474 2.77288 0 2.00482 2.7629 0 1.78074 2.77131 0 1.95891 2.76473 0 1.83876 2.76926 0 1.90095 2.76696 0 1.45625 2.39142 0 1.73427 2.37635 0 1.47998 2.39029 0 1.71064 2.37778 0 1.51929 2.38835 0 1.67145 2.3801 0 1.56885 2.38579 0 1.62196 2.38291 0 1.68555 2.74112 0 2.00703 2.72881 0 1.71298 2.74018 0 1.97968 2.72997 0 1.7584 2.73858 0 1.93434 2.73185 0 1.8157 2.73648 0 1.87711 2.73413 0 1.47758 2.42393 0 1.75963 2.4091 0 1.50165 2.42281 0 1.73564 2.41051 0 1.54152 2.4209 0 1.69589 2.41279 0 1.5918 2.41838 0 1.64568 2.41555 0 1.65009 2.68702 0 1.96483 2.67427 0 1.67694 2.68605 0 1.93806 2.67548 0 1.72142 2.68439 0 1.89367 2.67742 0 1.77752 2.68222 0 1.83764 2.67979 0 1.51292 2.47781 0 1.80165 2.4634 0 1.53756 2.47672 0 1.7771 2.46477 0 1.57837 2.47486 0 1.73639 2.46698 0 1.62984 2.47241 0 1.685 2.46966 0 1.6054 2.61885 0 1.91166 2.60555 0 1.63153 2.61784 0 1.88561 2.60681 0 1.67482 2.61612 0 1.84242 2.60884 0 1.7294 2.61385 0 1.78791 2.61131 0 1.55753 2.54583 0 1.85471 2.53195 0 1.58288 2.54478 0 1.82943 2.53327 0 1.62489 2.54298 0 1.78753 2.53539 0 1.67786 2.54062 0 1.73463 2.53797 0 1.36715 2.7834 0 1.69349 2.77423 0 1.39498 2.78272 0 1.66571 2.77512 0 1.44108 2.78156 0 1.61967 2.77655 0 1.49922 2.78002 0 1.56156 2.77827 0 1.16576 2.40303 0 1.44473 2.39196 0 1.18955 2.40223 0 1.421 2.39305 0 1.22896 2.40086 0 1.38164 2.3948 0 1.27868 2.39901 0 1.33197 2.3969 0 1.34996 2.7509 0 1.67224 2.74156 0 1.37744 2.75022 0 1.64481 2.74247 0 1.42297 2.74904 0 1.59934 2.74393 0 1.48039 2.74747 0 1.54196 2.74568 0 1.1829 2.43537 0 1.46589 2.42446 0 1.20703 2.43459 0 1.44181 2.42553 0 1.24701 2.43323 0 1.40189 2.42726 0 1.29744 2.43141 0 1.3515 2.42933 0 1.32149 2.69711 0 1.63706 2.68748 0 1.3484 2.6964 0 1.6102 2.68842 0 1.39298 2.69519 0 1.56568 2.68992 0 1.44921 2.69357 0 1.50949 2.69173 0 1.2113 2.48898 0 1.50095 2.47832 0 1.236 2.48821 0 1.4763 2.47937 0 1.27692 2.48688 0 1.43545 2.48105 0 1.32854 2.4851 0 1.38387 2.48307 0 1.2856 2.6293 0 1.59272 2.61933 0 1.31179 2.62857 0 1.56658 2.6203 0 1.35518 2.62732 0 1.52325 2.62186 0 1.4099 2.62565 0 1.46857 2.62374 0 1.24714 2.55666 0 1.54521 2.54633 0 1.27256 2.55591 0 1.51985 2.54734 0 1.31467 2.55462 0 1.4778 2.54896 0 1.36778 2.55289 0 1.42473 2.55092 0 1.97018 3.17556 0 2.34603 3.16707 0 2.00222 3.1749 0 2.31403 3.16786 0 2.05531 3.17379 0 2.261 3.16914 0 2.12228 3.17233 0 2.19408 3.17071 0 1.71737 2.78967 0 2.0449 2.77777 0 1.74531 2.78876 0 2.01704 2.77889 0 1.79159 2.78721 0 1.97084 2.7807 0 1.84996 2.78518 0 1.91253 2.78291 0 1.94854 3.14251 0 2.32023 3.13372 0 1.98023 3.14183 0 2.28859 3.13454 0 2.03273 3.14068 0 2.23615 3.13587 0 2.09896 3.13917 0 2.16997 3.13749 0 1.73881 2.82238 0 2.07043 2.81076 0 1.7671 2.82149 0 2.04221 2.81185 0 1.81395 2.81998 0 1.99544 2.81362 0 1.87305 2.818 0 1.9364 2.81578 0 1.91272 3.08783 0 2.27755 3.07853 0 1.94383 3.08711 0 2.2465 3.0794 0 1.99537 3.08589 0 2.19503 3.0808 0 2.06037 3.0843 0 2.13006 3.08252 0 1.77438 2.87666 0 2.11277 2.86549 0 1.80324 2.8758 0 2.08397 2.86654 0 1.85105 2.87435 0 2.03624 2.86824 0 1.91135 2.87244 0 1.97599 2.87031 0 1.86761 3.01896 0 2.2238 3.00904 0 1.89798 3.01819 0 2.19348 3.00996 0 1.9483 3.01689 0 2.14324 3.01147 0 2.01177 3.0152 0 2.07981 3.0133 0 1.81932 2.94525 0 2.16629 2.93468 0 1.84891 2.94444 0 2.13676 2.93567 0 1.89793 2.94306 0 2.08782 2.93727 0 1.95976 2.94125 0 2.02604 2.93923 0 1.57821 3.18257 0 1.95463 3.17587 0 1.6103 3.18207 0 1.92258 3.17651 0 1.66346 3.18121 0 1.86946 3.17754 0 1.73052 3.18007 0 1.80243 3.17879 0 1.3755 2.79918 0 1.70381 2.7901 0 1.40349 2.79851 0 1.67586 2.79098 0 1.44987 2.79736 0 1.62955 2.79239 0 1.50837 2.79583 0 1.57108 2.7941 0 1.56087 3.14976 0 1.93315 3.14284 0 1.59261 3.14924 0 1.90146 3.1435 0 1.64519 3.14835 0 1.84893 3.14456 0 1.71152 3.14718 0 1.78263 3.14586 0 1.39271 2.8317 0 1.72508 2.82281 0 1.42105 2.83105 0 1.69679 2.82367 0 1.468 2.82992 0 1.6499 2.82505 0 1.52722 2.82842 0 1.59071 2.82672 0 1.53217 3.09546 0 1.89762 3.08817 0 1.56333 3.09491 0 1.86651 3.08887 0 1.61494 3.09398 0 1.81494 3.08999 0 1.68005 3.09274 0 1.74986 3.09135 0 1.42125 2.88565 0 1.76037 2.87706 0 1.45016 2.88502 0 1.7315 2.87789 0 1.49806 2.88393 0 1.68365 2.87923 0 1.55848 2.88248 0 1.62327 2.88084 0 1.49601 3.02705 0 1.85286 3.01932 0 1.52643 3.02647 0 1.82248 3.02006 0 1.57684 3.02549 0 1.77213 3.02125 0 1.64042 3.02418 0 1.70858 3.0227 0 1.45729 2.95382 0 1.80496 2.94564 0 1.48693 2.95321 0 1.77536 2.94642 0 1.53604 2.95217 0 1.72631 2.94769 0 1.59798 2.95079 0 1.6644 2.94922 0 2.75217 3.15594 0 3.12641 3.14388 0 2.78409 3.15498 0 3.09456 3.14497 0 2.83697 3.15336 0 3.04178 3.14676 0 2.90366 3.15127 0 2.97515 3.14897 0 2.39832 2.76183 0 2.7233 2.74429 0 2.42606 2.76044 0 2.69567 2.74589 0 2.47202 2.7581 0 2.64987 2.7485 0 2.52995 2.75506 0 2.59203 2.75171 0 2.72185 3.12217 0 3.09186 3.10963 0 2.75341 3.12117 0 3.06037 3.11077 0 2.80569 3.11949 0 3.00819 3.11263 0 2.87163 3.11731 0 2.94231 3.11492 0 2.4283 2.79522 0 2.75745 2.77814 0 2.4564 2.79386 0 2.72946 2.7797 0 2.50293 2.79158 0 2.68307 2.78223 0 2.56161 2.78862 0 2.62449 2.78536 0 2.67168 3.06629 0 3.03469 3.05296 0 2.70264 3.06523 0 3.00381 3.05417 0 2.75394 3.06344 0 2.95261 3.05615 0 2.81864 3.06113 0 2.88798 3.05859 0 2.47804 2.85062 0 2.8141 2.8343 0 2.50672 2.84932 0 2.78553 2.83579 0 2.55423 2.84714 0 2.73815 2.83821 0 2.61414 2.84431 0 2.67834 2.8412 0 2.6085 2.99592 0 2.96272 2.98162 0 2.63873 2.99479 0 2.93259 2.98292 0 2.68879 2.99287 0 2.88264 2.98504 0 2.75192 2.99039 0 2.81958 2.98766 0 2.54092 2.92065 0 2.88573 2.9053 0 2.57034 2.91943 0 2.8564 2.9067 0 2.61908 2.91737 0 2.80779 2.90898 0 2.68054 2.91472 0 2.74641 2.91178 0 2.36156 3.16668 0 2.73668 3.15641 0 2.39354 3.16587 0 2.70475 3.15735 0 2.44654 3.16451 0 2.65183 3.15888 0 2.51338 3.16273 0 2.58504 3.16077 0 2.05843 2.77722 0 2.38485 2.7625 0 2.08628 2.77607 0 2.35709 2.76386 0 2.13242 2.77412 0 2.31107 2.76607 0 2.19061 2.77159 0 2.25296 2.76878 0 2.33559 3.13332 0 2.70653 3.12265 0 2.36722 3.13248 0 2.67496 3.12363 0 2.41963 3.13106 0 2.62263 3.12522 0 2.48573 3.12922 0 2.55659 3.12718 0 2.08412 2.81022 0 2.41466 2.79587 0 2.11232 2.8091 0 2.38654 2.79719 0 2.15904 2.8072 0 2.33994 2.79935 0 2.21796 2.80473 0 2.2811 2.80199 0 2.29262 3.0781 0 2.65664 3.06679 0 2.32367 3.07722 0 2.62566 3.06783 0 2.3751 3.07571 0 2.57432 3.06952 0 2.43997 3.07376 0 2.50951 3.0716 0 2.12674 2.86498 0 2.46411 2.85124 0 2.15553 2.8639 0 2.43542 2.8525 0 2.20321 2.86208 0 2.38784 2.85456 0 2.26334 2.85972 0 2.32779 2.85709 0 2.23851 3.00858 0 2.59383 2.99647 0 2.26882 3.00763 0 2.5636 2.99758 0 2.31903 3.00602 0 2.51348 2.9994 0 2.38235 3.00393 0 2.45022 3.00162 0 2.18062 2.93419 0 2.52663 2.92123 0 2.21013 2.93318 0 2.49719 2.92243 0 2.25903 2.93146 0 2.4484 2.92437 0 2.3207 2.92923 0 2.3868 2.92675 0 0.976109 0.842296 0 1.02756 0.732857 0 0.980948 0.8332 0 1.02366 0.742392 0 0.988792 0.818028 0 1.01699 0.758112 0 0.998364 0.798714 0 1.00821 0.777797 0 0.765115 0.65641 0 0.827767 0.574142 0 0.770798 0.649641 0 0.822785 0.581375 0 0.780078 0.63832 0 0.814379 0.593275 0 0.791537 0.623856 0 0.803512 0.60813 0 0.962816 0.830555 0 1.01509 0.722863 0 0.967728 0.82161 0 1.01113 0.732251 0 0.975691 0.806687 0 1.00434 0.747727 0 0.985412 0.787686 0 0.995418 0.767103 0 0.789268 0.677643 0 0.850824 0.592314 0 0.794882 0.670614 0 0.845964 0.599808 0 0.804039 0.658861 0 0.837748 0.61214 0 0.815328 0.643852 0 0.827096 0.627541 0 0.939426 0.809906 0 0.993118 0.705276 0 0.94446 0.801225 0 0.989031 0.714406 0 0.952623 0.786739 0 0.982048 0.729453 0 0.962597 0.768285 0 0.972873 0.748287 0 0.826171 0.710106 0 0.885976 0.62008 0 0.83167 0.702676 0 0.881304 0.627974 0 0.840624 0.69026 0 0.873382 0.640968 0 0.851633 0.674414 0 0.863071 0.657206 0 0.906983 0.781286 0 0.962551 0.680875 0 0.912169 0.772968 0 0.958296 0.689649 0 0.920589 0.759081 0 0.951039 0.704105 0 0.93089 0.741382 0 0.941524 0.722189 0 0.867742 0.746703 0 0.925442 0.651356 0 0.873091 0.738819 0 0.920984 0.659701 0 0.881787 0.72565 0 0.9134 0.673445 0 0.89245 0.708855 0 0.903489 0.69063 0 1.29871 1.12625 0 1.33661 0.975472 0 1.30223 1.11359 0 1.33368 0.988483 0 1.30795 1.09252 0 1.3287 1.00998 0 1.31496 1.0658 0 1.3222 1.03699 0 1.12631 0.974901 0 1.16922 0.845735 0 1.13032 0.964096 0 1.16593 0.856923 0 1.13683 0.946104 0 1.16033 0.875393 0 1.14478 0.923252 0 1.15299 0.898568 0 1.28254 1.11208 0 1.32079 0.963299 0 1.2861 1.09959 0 1.31783 0.976142 0 1.29187 1.07881 0 1.31281 0.99736 0 1.29894 1.05245 0 1.30625 1.02401 0 1.13918 0.986227 0 1.18157 0.855412 0 1.14314 0.975279 0 1.17832 0.866738 0 1.14956 0.957052 0 1.17278 0.885438 0 1.15741 0.933905 0 1.16552 0.908905 0 1.25623 1.08902 0 1.29508 0.943491 0 1.25985 1.0768 0 1.29208 0.956058 0 1.26571 1.05648 0 1.28698 0.976819 0 1.27289 1.0307 0 1.28032 1.0029 0 1.16138 1.00575 0 1.20295 0.87211 0 1.16526 0.994561 0 1.19975 0.883674 0 1.17155 0.97593 0 1.19431 0.90277 0 1.17925 0.952277 0 1.18719 0.926738 0 1.22401 1.06075 0 1.26366 0.919232 0 1.2277 1.04888 0 1.2606 0.931461 0 1.23369 1.02913 0 1.2554 0.951659 0 1.24102 1.00407 0 1.2486 0.977024 0 1.19083 1.03163 0 1.23144 0.894267 0 1.19462 1.02012 0 1.22831 0.906145 0 1.20076 1.00096 0 1.22299 0.925761 0 1.20827 0.976638 0 1.21603 0.950388 0 1.36892 0.80804 0 1.39074 0.651039 0 1.37108 0.794731 0 1.38918 0.664467 0 1.37453 0.772645 0 1.38647 0.686701 0 1.37867 0.744723 0 1.38283 0.714722 0 1.205 0.701232 0 1.2291 0.565081 0 1.20737 0.68971 0 1.22735 0.576742 0 1.21116 0.670579 0 1.22433 0.596045 0 1.21571 0.64638 0 1.2203 0.620361 0 1.35338 0.797996 0 1.37539 0.642941 0 1.35555 0.784853 0 1.37381 0.656203 0 1.35903 0.763042 0 1.37107 0.678163 0 1.3632 0.735468 0 1.36741 0.705839 0 1.21703 0.709173 0 1.24094 0.571456 0 1.21938 0.697516 0 1.2392 0.583249 0 1.22315 0.678163 0 1.23621 0.602772 0 1.22766 0.653684 0 1.23222 0.627366 0 1.32813 0.781659 0 1.35047 0.629773 0 1.33033 0.768788 0 1.34886 0.642766 0 1.33386 0.747425 0 1.34608 0.664281 0 1.33809 0.720416 0 1.34236 0.691392 0 1.2379 0.722889 0 1.26149 0.582475 0 1.24022 0.711001 0 1.25978 0.594496 0 1.24393 0.691265 0 1.25683 0.614398 0 1.24839 0.666304 0 1.25289 0.639471 0 1.29731 0.761666 0 1.32006 0.613669 0 1.29956 0.749128 0 1.31842 0.626332 0 1.30315 0.728316 0 1.31559 0.6473 0 1.30745 0.702001 0 1.31179 0.67372 0 1.26575 0.741111 0 1.28894 0.597126 0 1.26803 0.728917 0 1.28726 0.60945 0 1.27169 0.708674 0 1.28437 0.629853 0 1.27607 0.683075 0 1.2805 0.65556 0 1.71571 1.49135 0 1.74713 1.28975 0 1.71864 1.47432 0 1.74471 1.30706 0 1.72339 1.44604 0 1.74059 1.3357 0 1.7292 1.41025 0 1.7352 1.37173 0 1.51483 1.31551 0 1.54912 1.13831 0 1.51803 1.30058 0 1.54647 1.15356 0 1.52321 1.27577 0 1.54197 1.17877 0 1.52954 1.24433 0 1.53609 1.21047 0 1.69872 1.47648 0 1.73038 1.27694 0 1.70167 1.45963 0 1.72794 1.29407 0 1.70646 1.43164 0 1.72378 1.32242 0 1.71231 1.39622 0 1.71836 1.35809 0 1.53208 1.33061 0 1.56612 1.15131 0 1.53525 1.3155 0 1.56349 1.16674 0 1.5404 1.29039 0 1.55902 1.19224 0 1.54669 1.25858 0 1.55319 1.22432 0 1.67052 1.45179 0 1.70257 1.25567 0 1.67351 1.43524 0 1.7001 1.27252 0 1.67835 1.40774 0 1.6959 1.30039 0 1.68428 1.37292 0 1.6904 1.33545 0 1.56061 1.35558 0 1.59423 1.17281 0 1.56374 1.34017 0 1.59163 1.18853 0 1.56882 1.31457 0 1.58722 1.21453 0 1.57504 1.28214 0 1.58146 1.24722 0 1.63486 1.42057 0 1.66741 1.22878 0 1.63789 1.40439 0 1.6649 1.24527 0 1.64281 1.3775 0 1.66063 1.27253 0 1.64883 1.34346 0 1.65505 1.30682 0 1.59649 1.38699 0 1.6296 1.19987 0 1.59958 1.37121 0 1.62704 1.21595 0 1.60458 1.34499 0 1.6227 1.24256 0 1.6107 1.31178 0 1.61703 1.27602 0 2.12675 1.85108 0 2.15261 1.59967 0 2.12915 1.82978 0 2.15061 1.6212 0 2.13306 1.79443 0 2.14721 1.65683 0 2.13783 1.74974 0 2.14277 1.70171 0 1.93021 1.67908 0 1.9587 1.45148 0 1.93287 1.65982 0 1.9565 1.47099 0 1.93717 1.62785 0 1.95276 1.50328 0 1.94243 1.58742 0 1.94788 1.54393 0 2.11004 1.83646 0 2.13612 1.58707 0 2.11246 1.81533 0 2.13411 1.60843 0 2.1164 1.78027 0 2.13068 1.64377 0 2.12122 1.73594 0 2.1262 1.68829 0 1.947 1.69377 0 1.97526 1.46414 0 1.94963 1.67434 0 1.97308 1.48382 0 1.9539 1.64208 0 1.96937 1.5164 0 1.95912 1.60128 0 1.96452 1.55741 0 2.08234 1.81222 0 2.10879 1.56619 0 2.0848 1.79138 0 2.10675 1.58726 0 2.08879 1.75679 0 2.10327 1.62213 0 2.09368 1.71306 0 2.09873 1.66606 0 1.9748 1.7181 0 2.00268 1.4851 0 1.97739 1.69838 0 2.00053 1.50507 0 1.98161 1.66564 0 1.99687 1.53811 0 1.98676 1.62424 0 1.99209 1.57972 0 2.04737 1.78161 0 2.07429 1.53982 0 2.04987 1.76114 0 2.0722 1.56053 0 2.05394 1.72715 0 2.06867 1.59481 0 2.05891 1.68418 0 2.06405 1.63798 0 2.00983 1.74876 0 2.03725 1.51152 0 2.01239 1.72868 0 2.03513 1.53184 0 2.01653 1.69534 0 2.03153 1.56549 0 2.02159 1.65318 0 2.02683 1.60785 0 2.17474 1.32471 0 2.18972 1.0691 0 2.17622 1.30299 0 2.18865 1.09091 0 2.17859 1.26696 0 2.18679 1.12706 0 2.18143 1.22146 0 2.18429 1.17263 0 1.98293 1.20195 0 1.99917 0.969652 0 1.98454 1.18221 0 1.99801 0.989486 0 1.98712 1.14948 0 1.99601 1.02234 0 1.99021 1.10814 0 1.99331 1.06376 0 2.15843 1.31428 0 2.17351 1.06064 0 2.15992 1.29272 0 2.17243 1.08229 0 2.1623 1.25697 0 2.17056 1.11815 0 2.16517 1.21183 0 2.16805 1.16337 0 1.99931 1.21243 0 2.01543 0.978146 0 2.00091 1.19253 0 2.01429 0.998149 0 2.00347 1.15952 0 2.0123 1.03128 0 2.00653 1.11782 0 2.00962 1.07306 0 2.13139 1.29698 0 2.14664 1.04663 0 2.1329 1.2757 0 2.14555 1.068 0 2.13531 1.24042 0 2.14366 1.10339 0 2.13821 1.19586 0 2.14112 1.14803 0 2.02643 1.2298 0 2.04237 0.992211 0 2.02801 1.20961 0 2.04124 1.01249 0 2.03054 1.17613 0 2.03927 1.04609 0 2.03357 1.13385 0 2.03662 1.08846 0 2.09725 1.27513 0 2.11273 1.02893 0 2.09879 1.25421 0 2.11163 1.04995 0 2.10124 1.21951 0 2.10971 1.08476 0 2.10418 1.17569 0 2.10713 1.12866 0 2.06062 1.25168 0 2.07634 1.00994 0 2.06218 1.23114 0 2.07522 1.03058 0 2.06467 1.19707 0 2.07327 1.06476 0 2.06766 1.15405 0 2.07066 1.10787 0 1.80344 0.636444 0 1.80765 0.429338 0 1.80405 0.618766 0 1.80754 0.446937 0 1.80496 0.589481 0 1.80726 0.476122 0 1.80592 0.552553 0 1.80672 0.512984 0 1.6109 0.560921 0 1.61573 0.377867 0 1.61159 0.545285 0 1.61558 0.393409 0 1.6126 0.519387 0 1.61524 0.419189 0 1.61369 0.486737 0 1.61461 0.451761 0 1.78711 0.630045 0 1.79135 0.424973 0 1.78773 0.612539 0 1.79124 0.442398 0 1.78864 0.583541 0 1.79096 0.471295 0 1.78961 0.546975 0 1.79041 0.507794 0 1.62739 0.567393 0 1.63214 0.382274 0 1.62806 0.551582 0 1.632 0.397992 0 1.62907 0.525394 0 1.63166 0.424065 0 1.63014 0.492376 0 1.63104 0.457005 0 1.76002 0.619428 0 1.76433 0.417733 0 1.76065 0.602209 0 1.76421 0.434869 0 1.76157 0.573687 0 1.76392 0.463288 0 1.76255 0.537721 0 1.76337 0.499184 0 1.65467 0.578102 0 1.6593 0.389567 0 1.65533 0.562001 0 1.65917 0.405577 0 1.65631 0.535331 0 1.65885 0.432134 0 1.65736 0.501706 0 1.65825 0.465683 0 1.7258 0.606008 0 1.73019 0.408583 0 1.72643 0.589152 0 1.73007 0.425354 0 1.72737 0.56123 0 1.72977 0.453169 0 1.72837 0.526024 0 1.72921 0.488303 0 1.68902 0.591584 0 1.69353 0.398752 0 1.68967 0.575118 0 1.69341 0.41513 0 1.69064 0.547843 0 1.6931 0.442295 0 1.69166 0.513453 0 1.69252 0.47661 0 2.20003 0.7915 0 2.20413 0.535203 0 2.20058 0.769649 0 2.20398 0.557014 0 2.20141 0.733444 0 2.20366 0.593169 0 2.20231 0.687772 0 2.2031 0.638808 0 2.01011 0.717325 0 2.01413 0.484545 0 2.01068 0.697469 0 2.01402 0.504342 0 2.01153 0.664572 0 2.01373 0.537165 0 2.01244 0.62308 0 2.0132 0.578607 0 2.18387 0.785195 0 2.18796 0.530897 0 2.18442 0.763513 0 2.18782 0.552536 0 2.18526 0.727589 0 2.18749 0.588408 0 2.18616 0.682272 0 2.18694 0.63369 0 2.02632 0.723661 0 2.03034 0.488871 0 2.02688 0.703634 0 2.03022 0.50884 0 2.02773 0.670455 0 2.02993 0.541948 0 2.02864 0.628605 0 2.02941 0.583749 0 2.15709 0.774741 0 2.16116 0.523757 0 2.15764 0.753341 0 2.16102 0.545113 0 2.15848 0.717883 0 2.1607 0.580515 0 2.15938 0.673155 0 2.16015 0.625206 0 2.05316 0.734151 0 2.05719 0.496035 0 2.05372 0.713843 0 2.05706 0.516289 0 2.05457 0.680195 0 2.05677 0.549868 0 2.05547 0.637754 0 2.05624 0.592262 0 2.12328 0.761542 0 2.12733 0.514742 0 2.12384 0.740497 0 2.1272 0.53574 0 2.12468 0.705628 0 2.12689 0.570549 0 2.12558 0.661644 0 2.12635 0.614493 0 2.08701 0.747375 0 2.09104 0.505067 0 2.08757 0.726711 0 2.09092 0.525679 0 2.08841 0.692473 0 2.09062 0.559853 0 2.08931 0.649288 0 2.09008 0.602995 0 2.20276 0.258756 0 2.19622 0.00521841 0 2.2024 0.237077 0 2.19697 0.0267317 0 2.20172 0.201183 0 2.19814 0.0624193 0 2.20072 0.15595 0 2.19947 0.107513 0 2.01201 0.233921 0 2.00419 0.00470978 0 2.01156 0.214296 0 2.00507 0.0241299 0 2.01072 0.181811 0 2.00644 0.0563579 0 2.00951 0.140893 0 2.00802 0.0971023 0 2.18652 0.256644 0 2.17986 0.00517516 0 2.18615 0.23514 0 2.18062 0.0265105 0 2.18546 0.199536 0 2.18181 0.0619039 0 2.18444 0.154669 0 2.18316 0.106628 0 2.02827 0.236042 0 2.02055 0.0047532 0 2.02783 0.216241 0 2.02142 0.024352 0 2.02701 0.183465 0 2.02278 0.0568753 0 2.02581 0.142178 0 2.02433 0.0979911 0 2.1596 0.253144 0 2.15275 0.00510346 0 2.15922 0.231929 0 2.15353 0.0261437 0 2.1585 0.196805 0 2.15475 0.0610494 0 2.15745 0.152547 0 2.15614 0.10516 0 2.05521 0.239553 0 2.04766 0.00482511 0 2.05478 0.219462 0 2.04851 0.0247199 0 2.05398 0.186204 0 2.04984 0.0577323 0 2.05281 0.144307 0 2.05137 0.099463 0 2.12563 0.248724 0 2.11855 0.00501293 0 2.12523 0.227875 0 2.11935 0.0256806 0 2.12449 0.193358 0 2.12061 0.0599706 0 2.1234 0.149867 0 2.12204 0.103308 0 2.0892 0.243981 0 2.08186 0.00491577 0 2.08878 0.223523 0 2.0827 0.0251837 0 2.08801 0.189658 0 2.08399 0.0588128 0 2.08687 0.146991 0 2.08547 0.101319 0 0.11083 1.13507 0 0.21866 1.13646 0 0.119846 1.13545 0 0.209273 1.1367 0 0.134844 1.13601 0 0.193812 1.13692 0 0.153883 1.13656 0 0.17446 1.13689 0 0.0884973 0.999798 0 0.173908 0.989115 0 0.0957062 0.99918 0 0.166572 0.990327 0 0.107683 0.998039 0 0.154438 0.992208 0 0.122846 0.99639 0 0.139167 0.994357 0 0.109237 1.12574 0 0.215559 1.12673 0 0.118127 1.12609 0 0.206307 1.12701 0 0.132918 1.12659 0 0.191064 1.12729 0 0.151693 1.12707 0 0.171984 1.12733 0 0.0908289 1.01443 0 0.178698 1.00557 0 0.0982318 1.01396 0 0.171133 1.00664 0 0.110535 1.01308 0 0.158629 1.00828 0 0.126119 1.01177 0 0.142907 1.0101 0 0.106515 1.10972 0 0.21023 1.10987 0 0.115191 1.11 0 0.201211 1.11022 0 0.129624 1.11039 0 0.18635 1.11061 0 0.147945 1.11072 0 0.16774 1.11082 0 0.0944707 1.03705 0 0.186132 1.03083 0 0.102174 1.0368 0 0.178215 1.03169 0 0.114982 1.0363 0 0.165142 1.03297 0 0.131218 1.03547 0 0.148726 1.03432 0 0.102895 1.08821 0 0.203073 1.08687 0 0.111282 1.08837 0 0.194374 1.08735 0 0.125234 1.08855 0 0.180033 1.08795 0 0.14294 1.08861 0 0.162064 1.08842 0 0.0987138 1.06302 0 0.194713 1.05949 0 0.106764 1.063 0 0.186396 1.06015 0 0.120152 1.06287 0 0.172675 1.06105 0 0.137136 1.06254 0 0.155467 1.06192 0 0.154497 1.41048 0 0.302779 1.41267 0 0.166989 1.4109 0 0.289979 1.41272 0 0.187737 1.4115 0 0.268848 1.41271 0 0.214009 1.41209 0 0.242316 1.41251 0 0.130862 1.25509 0 0.257047 1.2571 0 0.141444 1.2555 0 0.246087 1.25721 0 0.159033 1.2561 0 0.228028 1.25726 0 0.181335 1.2567 0 0.205409 1.25711 0 0.152295 1.39559 0 0.298501 1.39773 0 0.164607 1.39601 0 0.285874 1.39779 0 0.185058 1.3966 0 0.265031 1.39779 0 0.210958 1.39719 0 0.238866 1.3976 0 0.132643 1.26635 0 0.26047 1.26832 0 0.143367 1.26676 0 0.249373 1.26843 0 0.16119 1.26735 0 0.231085 1.26848 0 0.183786 1.26793 0 0.208175 1.26834 0 0.148706 1.37147 0 0.291535 1.37354 0 0.160727 1.37188 0 0.279188 1.37361 0 0.180695 1.37247 0 0.258814 1.37362 0 0.205987 1.37304 0 0.233248 1.37345 0 0.135706 1.28594 0 0.266371 1.28788 0 0.146676 1.28635 0 0.255037 1.28798 0 0.164905 1.28693 0 0.236354 1.28803 0 0.18801 1.2875 0 0.212941 1.28789 0 0.144302 1.34214 0 0.282993 1.34412 0 0.155965 1.34254 0 0.27099 1.3442 0 0.175341 1.34312 0 0.251191 1.34423 0 0.199889 1.34369 0 0.226357 1.34408 0 0.139756 1.31222 0 0.274192 1.31415 0 0.151051 1.31262 0 0.262543 1.31425 0 0.169819 1.3132 0 0.243336 1.31429 0 0.193602 1.31376 0 0.219255 1.31415 0 0.468123 1.40796 0 0.622916 1.39698 0 0.481281 1.40727 0 0.609734 1.39816 0 0.503111 1.40603 0 0.587875 1.40002 0 0.530686 1.40428 0 0.56028 1.40218 0 0.399849 1.25042 0 0.534375 1.23689 0 0.411277 1.24951 0 0.52293 1.23827 0 0.430246 1.2479 0 0.50394 1.24047 0 0.45422 1.24569 0 0.479952 1.24309 0 0.461747 1.39288 0 0.614662 1.38172 0 0.474744 1.39217 0 0.601642 1.38292 0 0.496309 1.39091 0 0.580048 1.3848 0 0.523551 1.38913 0 0.552787 1.38699 0 0.404974 1.26182 0 0.541046 1.24855 0 0.416535 1.26094 0 0.529469 1.24992 0 0.435722 1.25937 0 0.51026 1.25208 0 0.45997 1.2572 0 0.485997 1.25466 0 0.45136 1.36843 0 0.601216 1.35697 0 0.464097 1.3677 0 0.588457 1.35819 0 0.485229 1.36639 0 0.567298 1.36012 0 0.511927 1.36456 0 0.540581 1.36237 0 0.413802 1.28169 0 0.552521 1.26883 0 0.425588 1.28085 0 0.540717 1.27016 0 0.445149 1.27934 0 0.521133 1.27228 0 0.469868 1.27724 0 0.496399 1.27478 0 0.438622 1.33869 0 0.584716 1.32681 0 0.451037 1.33792 0 0.57228 1.32806 0 0.471639 1.33655 0 0.551653 1.33004 0 0.497668 1.33464 0 0.525605 1.33237 0 0.425487 1.30834 0 0.567688 1.29597 0 0.43757 1.30754 0 0.555585 1.29727 0 0.457622 1.3061 0 0.535509 1.29932 0 0.48296 1.3041 0 0.510155 1.30173 0 0.210675 1.80483 0 0.41169 1.80776 0 0.227711 1.80529 0 0.394482 1.80772 0 0.255979 1.80596 0 0.365998 1.80756 0 0.291714 1.80665 0 0.330118 1.80721 0 0.183765 1.61305 0 0.359641 1.6159 0 0.198639 1.61351 0 0.344545 1.61588 0 0.223329 1.61419 0 0.319577 1.61575 0 0.254562 1.61488 0 0.288156 1.61543 0 0.208408 1.78852 0 0.407313 1.79146 0 0.225262 1.78898 0 0.390283 1.79142 0 0.253231 1.78965 0 0.362095 1.79126 0 0.288589 1.79035 0 0.326589 1.79091 0 0.186087 1.62942 0 0.364142 1.6323 0 0.201148 1.62988 0 0.348864 1.63227 0 0.226149 1.63056 0 0.323592 1.63214 0 0.257773 1.63126 0 0.291785 1.63181 0 0.204641 1.76148 0 0.40004 1.76444 0 0.221195 1.76194 0 0.383306 1.7644 0 0.248665 1.76262 0 0.355609 1.76424 0 0.283396 1.76332 0 0.320725 1.76389 0 0.189921 1.65653 0 0.37157 1.65945 0 0.205291 1.65699 0 0.355991 1.65942 0 0.230805 1.65767 0 0.330217 1.65928 0 0.263073 1.65838 0 0.297773 1.65894 0 0.199873 1.72734 0 0.390825 1.73031 0 0.216043 1.72781 0 0.374465 1.73027 0 0.242882 1.72849 0 0.347391 1.73012 0 0.276817 1.7292 0 0.313296 1.72977 0 0.194735 1.69071 0 0.38089 1.69367 0 0.210493 1.69118 0 0.364933 1.69363 0 0.236649 1.69186 0 0.338529 1.69348 0 0.269724 1.69257 0 0.305286 1.69313 0 0.265448 2.2026 0 0.517187 2.20437 0 0.286837 2.20292 0 0.495689 2.20439 0 0.322305 2.20338 0 0.460083 2.20435 0 0.367102 2.20384 0 0.415194 2.20418 0 0.239248 2.01181 0 0.466754 2.01428 0 0.258557 2.01221 0 0.447306 2.01426 0 0.290586 2.01279 0 0.415104 2.01414 0 0.331054 2.01339 0 0.374518 2.01386 0 0.26322 2.18636 0 0.512899 2.18819 0 0.284432 2.18668 0 0.491575 2.1882 0 0.319608 2.18715 0 0.456258 2.18816 0 0.364036 2.18762 0 0.411735 2.18797 0 0.241484 2.02807 0 0.47106 2.03049 0 0.260971 2.02846 0 0.451437 2.03047 0 0.293294 2.02904 0 0.418944 2.03036 0 0.334131 2.02963 0 0.377991 2.03009 0 0.259526 2.15943 0 0.50579 2.16137 0 0.280445 2.15977 0 0.484754 2.16138 0 0.315136 2.16026 0 0.449918 2.16132 0 0.358954 2.16075 0 0.406001 2.16112 0 0.245188 2.05502 0 0.478191 2.05735 0 0.264969 2.0554 0 0.458278 2.05734 0 0.297778 2.05596 0 0.425303 2.05724 0 0.339228 2.05653 0 0.383742 2.05698 0 0.254863 2.12546 0 0.496814 2.12753 0 0.275412 2.12581 0 0.476144 2.12753 0 0.309491 2.12632 0 0.441913 2.12746 0 0.352539 2.12684 0 0.398762 2.12724 0 0.249859 2.08901 0 0.487181 2.09122 0 0.27001 2.08938 0 0.466903 2.09121 0 0.303432 2.08992 0 0.433321 2.09113 0 0.345654 2.09046 0 0.390992 2.09089 0 0.790956 2.20135 0 1.04423 2.19396 0 0.812528 2.20089 0 1.02266 2.19476 0 0.84828 2.20007 0 0.986899 2.19602 0 0.893395 2.1989 0 0.941781 2.19748 0 0.71464 2.01146 0 0.944214 2.0037 0 0.734188 2.011 0 0.924653 2.00456 0 0.766586 2.01014 0 0.892236 2.0059 0 0.807475 2.00893 0 0.851335 2.00744 0 0.784468 2.18519 0 1.03573 2.17777 0 0.805867 2.18474 0 1.01432 2.17858 0 0.841334 2.18391 0 0.978851 2.17985 0 0.88609 2.18273 0 0.934091 2.18132 0 0.721157 2.02767 0 0.952756 2.01994 0 0.740877 2.0272 0 0.933022 2.02079 0 0.773562 2.02635 0 0.90032 2.02212 0 0.814813 2.02514 0 0.859059 2.02366 0 0.773711 2.15841 0 1.02163 2.15095 0 0.794825 2.15796 0 1.00051 2.15176 0 0.829819 2.15712 0 0.965508 2.15304 0 0.873979 2.15594 0 0.921343 2.15452 0 0.731949 2.0545 0 0.9669 2.04684 0 0.751956 2.05404 0 0.946882 2.04768 0 0.785115 2.05319 0 0.913708 2.049 0 0.826963 2.05199 0 0.871849 2.05053 0 0.76013 2.12461 0 1.00383 2.11708 0 0.780884 2.12415 0 0.983071 2.11791 0 0.815282 2.12332 0 0.948663 2.1192 0 0.85869 2.12213 0 0.905248 2.12069 0 0.745554 2.08834 0 0.98473 2.08075 0 0.765921 2.08788 0 0.964353 2.08158 0 0.799678 2.08704 0 0.930583 2.08288 0 0.84228 2.08585 0 0.887973 2.0844 0 1.05548 1.78115 0 1.25781 1.76112 0 1.07278 1.77966 0 1.24064 1.76305 0 1.10142 1.77711 0 1.21216 1.76615 0 1.13752 1.77372 0 1.17617 1.7699 0 0.927304 1.58632 0 1.10532 1.56439 0 0.942539 1.58469 0 1.09023 1.5665 0 0.967759 1.58189 0 1.0652 1.56989 0 0.999533 1.57818 0 1.03354 1.57399 0 1.04463 1.76465 0 1.2449 1.74447 0 1.06176 1.76315 0 1.22791 1.74641 0 1.09011 1.76058 0 1.19972 1.74953 0 1.12584 1.75717 0 1.1641 1.75332 0 0.938304 1.60303 0 1.11841 1.58127 0 0.953716 1.60141 0 1.10314 1.58336 0 0.97923 1.59863 0 1.07781 1.58673 0 1.01138 1.59496 0 1.04579 1.5908 0 1.02663 1.73727 0 1.22349 1.71684 0 1.04346 1.73576 0 1.20679 1.71881 0 1.07133 1.73315 0 1.17908 1.72197 0 1.10646 1.7297 0 1.14407 1.7258 0 0.956495 1.63067 0 1.14006 1.6092 0 0.9722 1.62907 0 1.12449 1.61126 0 0.9982 1.62633 0 1.09867 1.61458 0 1.03096 1.6227 0 1.06603 1.6186 0 1.00387 1.70266 0 1.19641 1.6819 0 1.02033 1.70112 0 1.18008 1.6839 0 1.0476 1.69847 0 1.15299 1.68711 0 1.08195 1.69497 0 1.11874 1.691 0 0.979387 1.66546 0 1.16729 1.64433 0 0.99546 1.66389 0 1.15136 1.64636 0 1.02207 1.66119 0 1.12492 1.64963 0 1.0556 1.65762 0 1.0915 1.65359 0 1.31812 2.18092 0 1.57004 2.16421 0 1.33963 2.17967 0 1.54864 2.16581 0 1.37526 2.17753 0 1.51314 2.16839 0 1.42018 2.1747 0 1.46831 2.17151 0 1.19251 1.98964 0 1.42073 1.97141 0 1.21201 1.98829 0 1.40135 1.97316 0 1.24429 1.98596 0 1.36921 1.97598 0 1.285 1.98288 0 1.3286 1.9794 0 1.30744 2.16465 0 1.55735 2.14782 0 1.32878 2.16339 0 1.53612 2.14943 0 1.36412 2.16124 0 1.5009 2.15203 0 1.40869 2.15839 0 1.45643 2.15517 0 1.20324 2.00598 0 1.43348 1.98788 0 1.22291 2.00463 0 1.41393 1.98962 0 1.25548 2.00232 0 1.3815 1.99241 0 1.29654 1.99926 0 1.34053 1.9958 0 1.28973 2.13769 0 1.53631 2.12064 0 1.31079 2.13642 0 1.51536 2.12228 0 1.34566 2.13423 0 1.48062 2.12491 0 1.38963 2.13135 0 1.43674 2.12809 0 1.221 2.03302 0 1.4546 2.01514 0 1.24095 2.03169 0 1.43476 2.01686 0 1.274 2.0294 0 1.40186 2.01962 0 1.31566 2.02638 0 1.36029 2.02297 0 1.26738 2.10365 0 1.50974 2.08633 0 1.28808 2.10236 0 1.48915 2.08799 0 1.32236 2.10014 0 1.45501 2.09067 0 1.36558 2.09721 0 1.41188 2.0939 0 1.24339 2.06712 0 1.48122 2.04951 0 1.26371 2.0658 0 1.46102 2.0512 0 1.29735 2.06355 0 1.42752 2.05392 0 1.33976 2.06058 0 1.3852 2.05721 0 1.84089 2.14108 0 2.08854 2.11508 0 1.86209 2.13904 0 2.06755 2.11747 0 1.89718 2.13558 0 2.03273 2.12135 0 1.94139 2.1311 0 1.9887 2.12613 0 1.66567 1.946 0 1.88905 1.91733 0 1.68482 1.94375 0 1.87015 1.91996 0 1.71651 1.93995 0 1.83877 1.92425 0 1.7564 1.935 0 1.79908 1.92952 0 1.82599 2.12449 0 2.07158 2.09827 0 1.84702 2.12243 0 2.05077 2.10067 0 1.88182 2.11895 0 2.01624 2.1046 0 1.92566 2.11442 0 1.97258 2.10941 0 1.68064 1.96266 0 1.90609 1.93422 0 1.69996 1.96043 0 1.88701 1.93683 0 1.73194 1.95666 0 1.85534 1.94109 0 1.77221 1.95175 0 1.81528 1.94632 0 1.8013 2.097 0 2.04347 2.0704 0 1.82203 2.09491 0 2.02295 2.07284 0 1.85636 2.09138 0 1.9889 2.07682 0 1.89959 2.08679 0 1.94586 2.08171 0 1.70542 1.99025 0 1.93431 1.96219 0 1.72504 1.98805 0 1.91493 1.96477 0 1.75749 1.98433 0 1.88277 1.96897 0 1.79837 1.97949 0 1.8421 1.97412 0 1.77012 2.06229 0 2.00797 2.03521 0 1.79049 2.06016 0 1.98782 2.0377 0 1.82421 2.05657 0 1.95439 2.04175 0 1.86668 2.0519 0 1.91212 2.04672 0 1.73666 2.02503 0 1.96987 1.99744 0 1.75664 2.02287 0 1.95012 1.99998 0 1.7897 2.0192 0 1.91735 2.0041 0 1.83135 2.01444 0 1.8759 2.00917 0 2.7358 2.38403 0 2.75361 2.05869 0 2.73744 2.35638 0 2.75221 2.08647 0 2.74011 2.31053 0 2.74985 2.13248 0 2.74339 2.25264 0 2.74679 2.19049 0 2.34294 2.04027 0 2.36595 1.76265 0 2.34507 2.01672 0 2.36417 1.78639 0 2.34854 1.97764 0 2.36113 1.8257 0 2.35278 1.92827 0 2.35718 1.87524 0 2.70221 2.35464 0 2.72046 2.03338 0 2.70389 2.32734 0 2.71903 2.06081 0 2.70663 2.28207 0 2.71662 2.10625 0 2.70999 2.2249 0 2.71347 2.16353 0 2.37632 2.06948 0 2.39889 1.78781 0 2.37841 2.04558 0 2.39714 1.8119 0 2.38181 2.00593 0 2.39417 1.85178 0 2.38598 1.95584 0 2.39029 1.90203 0 2.6466 2.30598 0 2.6656 1.99149 0 2.64836 2.27926 0 2.66412 2.01835 0 2.65121 2.23496 0 2.6616 2.06284 0 2.6547 2.179 0 2.65833 2.11892 0 2.43166 2.1179 0 2.4535 1.82952 0 2.43368 2.09343 0 2.4518 1.85418 0 2.43697 2.05283 0 2.44892 1.895 0 2.441 2.00153 0 2.44517 1.94644 0 2.57655 2.24469 0 2.59648 1.93871 0 2.57839 2.2187 0 2.59492 1.96485 0 2.58138 2.1756 0 2.59229 2.00814 0 2.58505 2.12116 0 2.58886 2.06271 0 2.50153 2.17904 0 2.52245 1.88218 0 2.50347 2.15384 0 2.52082 1.90755 0 2.50661 2.11203 0 2.51806 1.94956 0 2.51047 2.05922 0 2.51446 2.00251 0 2.71387 2.72081 0 2.73499 2.39745 0 2.71579 2.69335 0 2.73332 2.42507 0 2.71893 2.6478 0 2.73049 2.47083 0 2.7228 2.59027 0 2.72683 2.5285 0 2.31424 2.32643 0 2.34189 2.05169 0 2.31677 2.30315 0 2.33971 2.07522 0 2.32089 2.26452 0 2.33602 2.11415 0 2.32596 2.21568 0 2.33124 2.16319 0 2.6797 2.68709 0 2.70138 2.36788 0 2.68167 2.65998 0 2.69966 2.39516 0 2.68489 2.61502 0 2.69676 2.44033 0 2.68886 2.55824 0 2.693 2.49726 0 2.3482 2.35995 0 2.37529 2.08108 0 2.35068 2.33631 0 2.37315 2.10495 0 2.35471 2.29709 0 2.36954 2.14446 0 2.35968 2.24751 0 2.36486 2.19424 0 2.62313 2.63127 0 2.64574 2.31895 0 2.62519 2.60475 0 2.64395 2.34564 0 2.62855 2.56078 0 2.64093 2.38985 0 2.63269 2.50522 0 2.63701 2.44555 0 2.40449 2.4155 0 2.43067 2.12978 0 2.40688 2.39127 0 2.4286 2.15423 0 2.41078 2.35107 0 2.4251 2.1947 0 2.41558 2.30027 0 2.42058 2.24569 0 2.55187 2.56094 0 2.57564 2.25729 0 2.55404 2.53517 0 2.57376 2.28326 0 2.55758 2.49243 0 2.57058 2.32624 0 2.56193 2.43842 0 2.56647 2.38041 0 2.47556 2.48564 0 2.50058 2.19127 0 2.47785 2.46067 0 2.4986 2.21645 0 2.48157 2.41924 0 2.49526 2.25814 0 2.48615 2.36689 0 2.49093 2.31066 0 3.14924 2.74577 0 3.16141 2.36999 0 3.15036 2.7138 0 3.16045 2.40204 0 3.15217 2.6608 0 3.15883 2.45514 0 3.15441 2.5939 0 3.15673 2.52211 0 2.75212 2.39831 0 2.7697 2.07098 0 2.75374 2.37049 0 2.76833 2.09893 0 2.75637 2.32436 0 2.766 2.14522 0 2.75961 2.26611 0 2.76297 2.20358 0 3.11521 2.71599 0 3.12785 2.34437 0 3.11636 2.68437 0 3.12685 2.37607 0 3.11825 2.63196 0 3.12517 2.42859 0 3.12057 2.56581 0 3.12299 2.49482 0 2.78576 2.42774 0 2.80289 2.09631 0 2.78734 2.39957 0 2.80155 2.12461 0 2.7899 2.35286 0 2.79928 2.17148 0 2.79306 2.29388 0 2.79633 2.23057 0 3.05889 2.66672 0 3.07231 2.30198 0 3.06012 2.63569 0 3.07125 2.3331 0 3.06213 2.58426 0 3.06947 2.38465 0 3.06459 2.51933 0 3.06715 2.44965 0 2.84158 2.47658 0 2.85796 2.13835 0 2.84308 2.44783 0 2.85667 2.16723 0 2.84554 2.40015 0 2.8545 2.21505 0 2.84855 2.33995 0 2.85168 2.27534 0 2.98799 2.60468 0 3.00238 2.2486 0 2.98931 2.5744 0 3.00125 2.27899 0 2.99146 2.52419 0 2.99934 2.32932 0 2.99411 2.46081 0 2.99685 2.39279 0 2.91214 2.53832 0 2.92756 2.19149 0 2.91356 2.50883 0 2.92635 2.22109 0 2.91586 2.45993 0 2.92431 2.27012 0 2.9187 2.3982 0 2.92165 2.33195 0 3.13445 3.13588 0 3.1487 2.76128 0 3.13574 3.10402 0 3.14756 2.79324 0 3.13785 3.05119 0 3.14565 2.84619 0 3.14045 2.98451 0 3.14318 2.91295 0 2.73047 2.73719 0 2.75132 2.41181 0 2.73237 2.70956 0 2.74967 2.43961 0 2.73546 2.66372 0 2.74688 2.48564 0 2.73928 2.60583 0 2.74326 2.54367 0 3.09983 3.10171 0 3.11464 2.73133 0 3.10117 3.07021 0 3.11346 2.76294 0 3.10336 3.01798 0 3.11147 2.81528 0 3.10607 2.95205 0 3.1089 2.8813 0 2.76469 2.77097 0 2.78498 2.44141 0 2.76653 2.74297 0 2.78337 2.46956 0 2.76955 2.69654 0 2.78065 2.51618 0 2.77326 2.6379 0 2.77714 2.57495 0 3.04254 3.04517 0 3.05829 2.68177 0 3.04397 3.01427 0 3.05703 2.71279 0 3.0463 2.96303 0 3.05492 2.76416 0 3.04918 2.89835 0 3.05219 2.82893 0 2.82147 2.827 0 2.84084 2.49053 0 2.82323 2.79841 0 2.8393 2.51927 0 2.8261 2.751 0 2.8367 2.56686 0 2.82965 2.69113 0 2.83335 2.62685 0 2.97041 2.97399 0 2.98734 2.61938 0 2.97195 2.94384 0 2.98599 2.64965 0 2.97446 2.89385 0 2.98372 2.69979 0 2.97755 2.83074 0 2.98079 2.763 0 2.89325 2.89784 0 2.91144 2.55263 0 2.8949 2.8685 0 2.91 2.5821 0 2.8976 2.81985 0 2.90756 2.63092 0 2.90093 2.75841 0 2.9044 2.69247 0 3.17234 1.96207 0 3.18034 1.58452 0 3.1731 1.92993 0 3.17974 1.61671 0 3.17433 1.87666 0 3.17871 1.67004 0 3.17582 1.80943 0 3.17735 1.73731 0 2.78519 1.71491 0 2.7962 1.3849 0 2.78625 1.68683 0 2.79539 1.41305 0 2.78796 1.64029 0 2.79399 1.45968 0 2.79003 1.58153 0 2.79213 1.51849 0 3.13918 1.9409 0 3.14746 1.56744 0 3.13997 1.90911 0 3.14684 1.59928 0 3.14124 1.85643 0 3.14577 1.65204 0 3.14278 1.78992 0 3.14436 1.71858 0 2.81801 1.73587 0 2.82878 1.40184 0 2.81904 1.70744 0 2.82798 1.43033 0 2.82071 1.66033 0 2.82661 1.47753 0 2.82273 1.60086 0 2.82479 1.53705 0 3.08431 1.90588 0 3.09304 1.53917 0 3.08514 1.87467 0 3.09239 1.57044 0 3.08648 1.82293 0 3.09126 1.62224 0 3.08811 1.75764 0 3.08978 1.68759 0 2.87245 1.77063 0 2.88283 1.42993 0 2.87345 1.74164 0 2.88206 1.45899 0 2.87505 1.69358 0 2.88073 1.50713 0 2.877 1.63293 0 2.87898 1.56784 0 3.0152 1.86177 0 3.02449 1.50356 0 3.01609 1.83129 0 3.0238 1.5341 0 3.01752 1.78075 0 3.02261 1.58471 0 3.01926 1.71697 0 3.02103 1.64854 0 2.94126 1.81456 0 2.95112 1.46543 0 2.9422 1.78485 0 2.95038 1.49521 0 2.94373 1.73561 0 2.94912 1.54453 0 2.94557 1.67344 0 2.94745 1.60675 0 3.16187 2.35443 0 3.17196 1.97766 0 3.16281 2.32236 0 3.17118 2.0098 0 3.16433 2.26922 0 3.16986 2.06302 0 3.1662 2.20213 0 3.16812 2.13016 0 2.77036 2.05741 0 2.78467 1.72853 0 2.77171 2.02944 0 2.78357 1.7566 0 2.77388 1.98307 0 2.78171 1.80309 0 2.77653 1.92454 0 2.77926 1.86171 0 3.12833 2.32898 0 3.13879 1.95633 0 3.1293 2.29727 0 3.13798 1.98811 0 3.13088 2.2447 0 3.13661 2.04076 0 3.13281 2.17836 0 3.13481 2.10717 0 2.80354 2.08258 0 2.8175 1.74966 0 2.80484 2.05426 0 2.81643 1.77807 0 2.80696 2.00733 0 2.8146 1.82513 0 2.80955 1.94807 0 2.81222 1.88447 0 3.07282 2.28687 0 3.0839 1.92103 0 3.07385 2.25574 0 3.08304 1.95223 0 3.07552 2.20414 0 3.08159 2.00393 0 3.07757 2.13901 0 3.07969 2.06912 0 2.85857 2.12434 0 2.87196 1.7847 0 2.85983 2.09545 0 2.87093 1.81368 0 2.86186 2.04756 0 2.86918 1.86168 0 2.86433 1.9871 0 2.86689 1.92222 0 3.00292 2.23385 0 3.01477 1.87657 0 3.00403 2.20345 0 3.01385 1.90704 0 3.00582 2.15307 0 3.0123 1.95753 0 3.00801 2.08946 0 3.01027 2.02121 0 2.92815 2.17712 0 2.94079 1.82898 0 2.92933 2.14751 0 2.93982 1.85868 0 2.93124 2.09841 0 2.93816 1.90789 0 2.93358 2.03644 0 2.936 1.96993 0 3.56097 3.54783 0 3.57446 2.69414 0 3.56227 3.47518 0 3.57346 2.76695 0 3.56436 3.35477 0 3.57174 2.88757 0 3.56688 3.20277 0 3.56946 3.0397 0 3.15158 3.14471 0 3.17749 2.39026 0 3.15409 3.08061 0 3.17559 2.4547 0 3.15813 2.97432 0 3.17231 2.56142 0 3.163 2.84008 0 3.16795 2.69595 0 3.5259 3.5133 0 3.54047 2.66812 0 3.5273 3.44139 0 3.53939 2.74021 0 3.52956 3.32218 0 3.53753 2.85963 0 3.53229 3.17171 0 3.53507 3.01026 0 3.18626 3.17885 0 3.21112 2.416 0 3.18866 3.11403 0 3.20929 2.48115 0 3.19253 3.00654 0 3.20614 2.58904 0 3.19721 2.8708 0 3.20196 2.72507 0 3.46786 3.45615 0 3.4842 2.62505 0 3.46944 3.38545 0 3.48299 2.69595 0 3.47197 3.26825 0 3.48091 2.8134 0 3.47503 3.12029 0 3.47815 2.96153 0 3.2438 3.23551 0 3.26693 2.45873 0 3.24604 3.16949 0 3.26523 2.52505 0 3.24963 3.06002 0 3.26229 2.63489 0 3.25398 2.92178 0 3.2584 2.77339 0 3.39477 3.38417 0 3.41333 2.5708 0 3.39656 3.315 0 3.41195 2.6402 0 3.39944 3.20032 0 3.40959 2.75517 0 3.40292 3.05553 0 3.40646 2.90015 0 3.31656 3.30716 0 3.33749 2.51274 0 3.31858 3.23962 0 3.33594 2.58055 0 3.32183 3.12763 0 3.33329 2.69286 0 3.32576 2.98624 0 3.32976 2.83448 0 3.99143 3.97171 0 3.9917 3.0135 0 3.99146 3.89008 0 3.99168 3.09514 0 3.9915 3.75481 0 3.99165 3.23041 0 3.99155 3.58413 0 3.9916 3.40109 0 3.578 3.5646 0 3.59097 2.70678 0 3.57925 3.4916 0 3.59001 2.77994 0 3.58126 3.3706 0 3.58836 2.90113 0 3.58369 3.21786 0 3.58616 3.054 0 3.95614 3.93696 0 3.9575 2.98732 0 3.95627 3.85606 0 3.95739 3.06823 0 3.95648 3.72201 0 3.95722 3.20231 0 3.95674 3.55287 0 3.95699 3.37147 0 3.61311 3.59918 0 3.62501 2.73283 0 3.61426 3.52544 0 3.62413 2.80671 0 3.6161 3.40323 0 3.62261 2.9291 0 3.61833 3.24897 0 3.6206 3.08348 0 3.89768 3.87939 0 3.90083 2.94395 0 3.89798 3.79971 0 3.90059 3.02366 0 3.89846 3.66767 0 3.90019 3.15574 0 3.89905 3.50107 0 3.89966 3.32238 0 3.67136 3.65653 0 3.68147 2.77605 0 3.67233 3.58158 0 3.68071 2.85112 0 3.67389 3.45735 0 3.67942 2.97549 0 3.67578 3.30057 0 3.67772 3.13238 0 3.82394 3.80678 0 3.82936 2.88925 0 3.82446 3.72864 0 3.82896 2.96745 0 3.8253 3.59915 0 3.82827 3.09702 0 3.82631 3.43574 0 3.82735 3.26048 0 3.74494 3.72898 0 3.75279 2.83064 0 3.74569 3.6525 0 3.7522 2.90722 0 3.7469 3.52573 0 3.7512 3.03409 0 3.74837 3.36575 0 3.74987 3.19415 0 3.99171 2.97388 0 3.9919 2.01563 0 3.99173 2.89224 0 3.99188 2.09727 0 3.99176 2.75696 0 3.99186 2.23255 0 3.99179 2.58628 0 3.99183 2.40324 0 3.59143 2.67126 0 3.6006 1.81162 0 3.59236 2.59809 0 3.59997 1.88492 0 3.59383 2.4768 0 3.59885 2.00634 0 3.59558 2.32373 0 3.59733 2.15952 0 3.95754 2.94805 0 3.95851 1.99823 0 3.95764 2.86713 0 3.95844 2.07915 0 3.95779 2.73305 0 3.95832 2.21325 0 3.95798 2.56387 0 3.95816 2.38244 0 3.62543 2.69697 0 3.63386 1.82896 0 3.62628 2.62308 0 3.63327 1.90296 0 3.62763 2.5006 0 3.63224 2.02557 0 3.62924 2.34604 0 3.63085 2.18023 0 3.90094 2.90526 0 3.90319 1.96939 0 3.90117 2.82554 0 3.90304 2.04913 0 3.90153 2.69344 0 3.90276 2.18127 0 3.90196 2.52675 0 3.90239 2.34798 0 3.68182 2.7396 0 3.68901 1.85772 0 3.68255 2.66452 0 3.68851 1.93289 0 3.6837 2.54008 0 3.68763 2.05745 0 3.68507 2.38303 0 3.68644 2.21457 0 3.82955 2.85129 0 3.83343 1.93301 0 3.82994 2.77308 0 3.83316 2.01127 0 3.83056 2.64348 0 3.83268 2.14094 0 3.8313 2.47993 0 3.83204 2.30452 0 3.75307 2.79346 0 3.75866 1.89403 0 3.75363 2.71687 0 3.75827 1.97069 0 3.75452 2.58994 0 3.75758 2.09771 0 3.75559 2.42976 0 3.75666 2.25795 0 3.58478 1.7678 0 3.59034 0.910881 0 3.58541 1.69484 0 3.59002 0.983922 0 3.58638 1.57391 0 3.58942 1.10494 0 3.58749 1.42131 0 3.58856 1.25762 0 3.19674 1.56925 0 3.20634 0.808627 0 3.19786 1.50451 0 3.20583 0.873478 0 3.1996 1.39721 0 3.20486 0.980926 0 3.20157 1.26177 0 3.2034 1.11646 0 3.55159 1.75082 0 3.55755 0.902153 0 3.55225 1.67856 0 3.5572 0.974494 0 3.5533 1.55881 0 3.55656 1.09435 0 3.5545 1.40767 0 3.55564 1.24556 0 3.22965 1.58609 0 3.23897 0.817321 0 3.23073 1.52066 0 3.23847 0.882867 0 3.23241 1.41221 0 3.23752 0.991465 0 3.23432 1.27532 0 3.2361 1.12845 0 3.49663 1.7227 0 3.50323 0.887697 0 3.49737 1.65161 0 3.50285 0.958877 0 3.49853 1.53379 0 3.50215 1.07681 0 3.49986 1.38509 0 3.50112 1.22559 0 3.28425 1.61404 0 3.29307 0.831736 0 3.28527 1.54745 0 3.29259 0.898433 0 3.28685 1.43708 0 3.29168 1.00894 0 3.28865 1.29778 0 3.29033 1.14834 0 3.42738 1.68728 0 3.43476 0.869468 0 3.42822 1.61766 0 3.43434 0.939187 0 3.42952 1.50227 0 3.43356 1.0547 0 3.43101 1.35664 0 3.43242 1.20041 0 3.35325 1.64935 0 3.3614 0.849935 0 3.35418 1.5813 0 3.36095 0.918089 0 3.35563 1.46851 0 3.36009 1.03101 0 3.35729 1.32616 0 3.35884 1.17345 0 3.9919 1.976 0 3.99202 1.01773 0 3.99192 1.89437 0 3.99201 1.09937 0 3.99194 1.75908 0 3.992 1.23466 0 3.99196 1.5884 0 3.99198 1.40535 0 3.60091 1.77604 0 3.60627 0.915118 0 3.60151 1.70274 0 3.60595 0.9885 0 3.60244 1.58125 0 3.60538 1.11009 0 3.60352 1.42793 0 3.60454 1.26347 0 3.95854 1.95894 0 3.95912 1.00898 0 3.95861 1.87802 0 3.95909 1.08992 0 3.95871 1.74391 0 3.95902 1.22403 0 3.95882 1.57471 0 3.95893 1.39325 0 3.63414 1.79304 0 3.63908 0.92385 0 3.63469 1.71903 0 3.63879 0.997934 0 3.63555 1.59637 0 3.63826 1.12068 0 3.63654 1.44157 0 3.63749 1.27554 0 3.90327 1.93068 0 3.90462 0.994487 0 3.90342 1.85093 0 3.90454 1.07426 0 3.90365 1.71878 0 3.90439 1.20643 0 3.90392 1.55203 0 3.90418 1.3732 0 3.68924 1.82123 0 3.69349 0.938325 0 3.68972 1.74604 0 3.69324 1.01357 0 3.69045 1.62144 0 3.69277 1.13825 0 3.6913 1.4642 0 3.69211 1.29554 0 3.83355 1.89503 0 3.83587 0.976201 0 3.83381 1.81677 0 3.83573 1.0545 0 3.83421 1.68708 0 3.83548 1.18423 0 3.83467 1.52343 0 3.83511 1.34791 0 3.75884 1.85682 0 3.76217 0.956597 0 3.75921 1.78015 0 3.76197 1.03331 0 3.75979 1.6531 0 3.76161 1.16043 0 3.76045 1.49277 0 3.76109 1.3208 0 3.99202 0.978105 0 3.99206 0.0198139 0 3.99203 0.896464 0 3.99206 0.101456 0 3.99204 0.76118 0 3.99206 0.236741 0 3.99204 0.590487 0 3.99205 0.407434 0 3.60641 0.879498 0 3.60795 0.0178202 0 3.60668 0.806108 0 3.60796 0.0912461 0 3.60708 0.684487 0 3.60792 0.212913 0 3.60748 0.531016 0 3.60777 0.366414 0 3.95914 0.969698 0 3.95933 0.0196441 0 3.95917 0.888761 0 3.95933 0.100586 0 3.95922 0.754643 0 3.95932 0.234711 0 3.95926 0.585419 0 3.9593 0.403939 0 3.63922 0.887889 0 3.64067 0.0179901 0 3.63947 0.813799 0 3.64068 0.0921162 0 3.63984 0.691015 0 3.64064 0.214943 0 3.64021 0.53608 0 3.64049 0.369908 0 3.90466 0.955769 0 3.90511 0.0193627 0 3.90473 0.875998 0 3.9051 0.099145 0 3.90484 0.743811 0 3.90508 0.231347 0 3.90494 0.577021 0 3.90503 0.398147 0 3.6936 0.9018 0 3.6949 0.0182716 0 3.69382 0.826546 0 3.6949 0.0935578 0 3.69414 0.701836 0 3.69485 0.218307 0 3.69447 0.544473 0 3.69471 0.375698 0 3.83593 0.938197 0 3.83669 0.0190076 0 3.83606 0.859897 0 3.83668 0.0973267 0 3.83624 0.730145 0 3.83665 0.227103 0 3.83642 0.566425 0 3.83656 0.39084 0 3.76226 0.919358 0 3.76331 0.0186268 0 3.76244 0.842636 0 3.76331 0.0953765 0 3.76269 0.715494 0 3.76327 0.222552 0 3.76295 0.555064 0 3.76315 0.383004 0 0.346308 2.79438 0 0.672955 2.79376 0 0.37412 2.79443 0 0.645113 2.79392 0 0.420214 2.79447 0 0.598981 2.79414 0 0.478386 2.79445 0 0.540784 2.79434 0 0.294254 2.41295 0 0.572635 2.41381 0 0.317928 2.41317 0 0.548882 2.41388 0 0.357178 2.41347 0 0.509534 2.41394 0 0.406733 2.41375 0 0.459913 2.41391 0 0.341878 2.76185 0 0.664408 2.76134 0 0.369337 2.76192 0 0.636915 2.7615 0 0.414848 2.76198 0 0.591362 2.76171 0 0.472285 2.76199 0 0.533897 2.76189 0 0.298695 2.44543 0 0.581186 2.44614 0 0.322722 2.44563 0 0.557085 2.44623 0 0.362555 2.44591 0 0.51716 2.4463 0 0.412844 2.44616 0 0.466809 2.4463 0 0.334535 2.70798 0 0.650246 2.70765 0 0.36141 2.70807 0 0.623331 2.70779 0 0.405955 2.70816 0 0.578738 2.70798 0 0.462174 2.7082 0 0.522484 2.70814 0 0.306051 2.49925 0 0.595352 2.49974 0 0.330662 2.49943 0 0.570674 2.49983 0 0.371461 2.49967 0 0.529793 2.49994 0 0.422966 2.49987 0 0.478232 2.49997 0 0.325269 2.64002 0 0.63238 2.63994 0 0.351407 2.64014 0 0.606194 2.64007 0 0.394732 2.64028 0 0.562809 2.64024 0 0.449417 2.64037 0 0.508084 2.64035 0 0.315326 2.56717 0 0.613221 2.56738 0 0.340675 2.56732 0 0.587815 2.56749 0 0.382692 2.56751 0 0.545726 2.56762 0 0.435732 2.56766 0 0.492639 2.56769 0 0.00673394 2.79213 0 0.33281 2.79434 0 0.0344846 2.79243 0 0.305004 2.79426 0 0.0804825 2.79287 0 0.258937 2.79408 0 0.138542 2.79335 0 0.200831 2.79377 0 0.00571126 2.40808 0 0.282766 2.41283 0 0.0292522 2.40863 0 0.259105 2.41257 0 0.0682888 2.40948 0 0.219919 2.41208 0 0.11759 2.41045 0 0.170517 2.41136 0 0.00664701 2.75941 0 0.328551 2.76182 0 0.0340398 2.75973 0 0.301098 2.76172 0 0.0794457 2.7602 0 0.255617 2.76152 0 0.13676 2.76072 0 0.198252 2.76118 0 0.0057986 2.4408 0 0.287036 2.44532 0 0.029699 2.44132 0 0.263021 2.44508 0 0.0693299 2.44214 0 0.223249 2.44461 0 0.119378 2.44306 0 0.173104 2.44393 0 0.00650288 2.70519 0 0.321492 2.70793 0 0.0333023 2.70554 0 0.294625 2.70781 0 0.0777269 2.70607 0 0.250115 2.70757 0 0.133806 2.70665 0 0.193978 2.70718 0 0.00594323 2.49502 0 0.294108 2.49915 0 0.030439 2.4955 0 0.269508 2.49894 0 0.0710541 2.49626 0 0.228763 2.49852 0 0.122341 2.49711 0 0.177389 2.4979 0 0.0063209 2.63679 0 0.312583 2.63996 0 0.0323712 2.63718 0 0.286454 2.63981 0 0.0755569 2.63778 0 0.24317 2.63951 0 0.130077 2.63844 0 0.188582 2.63905 0 0.00612556 2.56342 0 0.303025 2.56709 0 0.0313718 2.56386 0 0.277687 2.56691 0 0.0732278 2.56454 0 0.235717 2.56655 0 0.126075 2.5653 0 0.182792 2.56601 0 0.400446 3.19248 0 0.777583 3.19112 0 0.432575 3.19243 0 0.745454 3.1913 0 0.485816 3.19232 0 0.692212 3.19158 0 0.552993 3.19214 0 0.625035 3.19188 0 0.348458 2.81016 0 0.677104 2.8095 0 0.376441 2.81021 0 0.649093 2.80966 0 0.422819 2.81025 0 0.60268 2.80989 0 0.481347 2.81022 0 0.544127 2.81009 0 0.396016 3.15986 0 0.76901 3.15853 0 0.427792 3.15982 0 0.737233 3.15871 0 0.480447 3.15972 0 0.684575 3.15899 0 0.546885 3.15954 0 0.618136 3.15928 0 0.352888 2.84269 0 0.685654 2.84194 0 0.381223 2.84273 0 0.657293 2.8421 0 0.428184 2.84275 0 0.6103 2.84234 0 0.487448 2.8427 0 0.551015 2.84255 0 0.388677 3.10584 0 0.754809 3.10455 0 0.419866 3.1058 0 0.723615 3.10474 0 0.471551 3.10571 0 0.671925 3.10501 0 0.536766 3.10555 0 0.606706 3.1053 0 0.360227 2.89661 0 0.699824 2.89571 0 0.389148 2.89663 0 0.670883 2.89589 0 0.437076 2.89662 0 0.62293 2.89613 0 0.497558 2.89654 0 0.56243 2.89637 0 0.379417 3.0377 0 0.736902 3.03651 0 0.409867 3.03768 0 0.706443 3.0367 0 0.460328 3.03762 0 0.65597 3.03697 0 0.524001 3.03747 0 0.59229 3.03725 0 0.369487 2.96467 0 0.71771 2.96362 0 0.399145 2.96467 0 0.688037 2.9638 0 0.448295 2.96463 0 0.638869 2.96406 0 0.510316 2.96452 0 0.576836 2.96432 0 0.00779417 3.19208 0 0.384851 3.1925 0 0.0399106 3.19219 0 0.352722 3.19253 0 0.0931329 3.19233 0 0.299485 3.19255 0 0.160291 3.19246 0 0.232317 3.19254 0 0.00677612 2.80801 0 0.334877 2.81013 0 0.0347005 2.8083 0 0.3069 2.81006 0 0.0809856 2.80873 0 0.260548 2.80989 0 0.139406 2.80919 0 0.202083 2.8096 0 0.00770757 3.15936 0 0.380593 3.15988 0 0.0394674 3.15948 0 0.348819 3.15991 0 0.0920993 3.15964 0 0.296169 3.15992 0 0.158513 3.15979 0 0.229743 3.15989 0 0.00686301 2.84073 0 0.339135 2.84267 0 0.0351451 2.841 0 0.310805 2.8426 0 0.0820219 2.8414 0 0.263867 2.84246 0 0.141188 2.84183 0 0.204661 2.8422 0 0.00756403 3.10514 0 0.373538 3.10585 0 0.0387326 3.10528 0 0.342351 3.10586 0 0.090386 3.10547 0 0.290673 3.10586 0 0.155567 3.10566 0 0.225477 3.10579 0 0.00700691 2.89495 0 0.346191 2.8966 0 0.0358814 2.89519 0 0.317275 2.89655 0 0.0837385 2.89554 0 0.269366 2.89644 0 0.144138 2.89591 0 0.208931 2.89623 0 0.00738282 3.03673 0 0.364637 3.03771 0 0.0378052 3.03689 0 0.334189 3.0377 0 0.0882235 3.03713 0 0.283739 3.03767 0 0.151849 3.03737 0 0.220093 3.03756 0 0.00718836 2.96336 0 0.355092 2.96467 0 0.03681 2.96356 0 0.325437 2.96465 0 0.0859032 2.96386 0 0.276302 2.96457 0 0.147859 2.96416 0 0.214318 2.96441 0 1.18582 3.18773 0 1.56264 3.18281 0 1.21794 3.18738 0 1.53055 3.1833 0 1.27115 3.18676 0 1.47737 3.18407 0 1.33828 3.18595 0 1.41026 3.18501 0 1.03316 2.80576 0 1.36192 2.7995 0 1.06118 2.80533 0 1.33392 2.80013 0 1.1076 2.80458 0 1.28752 2.80115 0 1.16617 2.80355 0 1.22897 2.80235 0 1.17278 3.15507 0 1.54547 3.15001 0 1.20454 3.15471 0 1.51373 3.15051 0 1.25717 3.15408 0 1.46113 3.15131 0 1.32357 3.15324 0 1.39476 3.15227 0 1.04614 2.83819 0 1.37895 2.83202 0 1.0745 2.83777 0 1.35061 2.83264 0 1.1215 2.83702 0 1.30364 2.83364 0 1.18079 2.83601 0 1.24437 2.83483 0 1.15118 3.101 0 1.51705 3.09572 0 1.18236 3.10063 0 1.48589 3.09624 0 1.23403 3.09997 0 1.43426 3.09708 0 1.29921 3.0991 0 1.3691 3.09809 0 1.06764 2.89197 0 1.40721 2.88596 0 1.09658 2.89156 0 1.37829 2.88656 0 1.14453 2.89083 0 1.33037 2.88753 0 1.20503 2.88984 0 1.2699 2.88869 0 1.12396 3.03287 0 1.48125 3.02733 0 1.15441 3.03248 0 1.45082 3.02788 0 1.20486 3.0318 0 1.4004 3.02876 0 1.26852 3.03088 0 1.33677 3.02982 0 1.0948 2.95991 0 1.44291 2.95411 0 1.12447 2.95951 0 1.41326 2.95469 0 1.17363 2.9588 0 1.36414 2.95562 0 1.23564 2.95784 0 1.30214 2.95673 0 0.793178 3.19103 0 1.17023 3.18789 0 0.825306 3.19083 0 1.13812 3.18823 0 0.878544 3.19047 0 1.0849 3.18875 0 0.945712 3.18997 0 1.01774 3.18937 0 0.690701 2.80942 0 1.01957 2.80596 0 0.718715 2.80923 0 0.991547 2.80636 0 0.765139 2.80887 0 0.945119 2.80698 0 0.823716 2.80834 0 0.886538 2.80768 0 0.784434 3.15843 0 1.15736 3.15524 0 0.81621 3.15823 0 1.1256 3.15558 0 0.868864 3.15787 0 1.07296 3.15612 0 0.935296 3.15736 0 1.00653 3.15675 0 0.69942 2.84185 0 1.03237 2.83839 0 0.727783 2.84166 0 1.004 2.83879 0 0.774785 2.84129 0 0.957 2.8394 0 0.83409 2.84076 0 0.897692 2.8401 0 0.76995 3.10446 0 1.13605 3.10118 0 0.801144 3.10426 0 1.10486 3.10153 0 0.852832 3.10389 0 1.05319 3.10209 0 0.918047 3.10336 0 0.98798 3.10274 0 0.713872 2.89562 0 1.0536 2.89217 0 0.742814 2.89543 0 1.02466 2.89256 0 0.790774 2.89506 0 0.976697 2.89317 0 0.851288 2.89452 0 0.916184 2.89386 0 0.751687 3.03642 0 1.10918 3.03306 0 0.782146 3.03621 0 1.07873 3.03342 0 0.832619 3.03584 0 1.02827 3.034 0 0.8963 3.03531 0 0.964591 3.03467 0 0.732113 2.96353 0 1.0804 2.9601 0 0.761787 2.96332 0 1.05073 2.96048 0 0.810958 2.96295 0 1.00157 2.96108 0 0.872999 2.96242 0 0.939531 2.96176 0 0.0177024 3.59207 0 0.873762 3.59077 0 0.0906434 3.59208 0 0.800844 3.591 0 0.211509 3.59206 0 0.680007 3.59135 0 0.364004 3.59193 0 0.527531 3.59168 0 0.0156725 3.20799 0 0.773906 3.20699 0 0.0802537 3.20817 0 0.709305 3.20734 0 0.18728 3.20835 0 0.602253 3.2078 0 0.322335 3.20839 0 0.467181 3.2082 0 0.0175296 3.55934 0 0.86524 3.558 0 0.0897588 3.55937 0 0.793033 3.55825 0 0.209445 3.55935 0 0.673375 3.55861 0 0.360453 3.55922 0 0.522386 3.55897 0 0.0158456 3.24071 0 0.782398 3.23961 0 0.0811395 3.24086 0 0.717091 3.23995 0 0.189345 3.24102 0 0.608869 3.24041 0 0.325884 3.24103 0 0.472319 3.24082 0 0.0172432 3.50512 0 0.851125 3.50372 0 0.0882928 3.50516 0 0.780095 3.504 0 0.206026 3.50515 0 0.662388 3.50439 0 0.354569 3.50503 0 0.513861 3.50477 0 0.0161324 3.29493 0 0.796477 3.29369 0 0.0826071 3.29505 0 0.729999 3.29402 0 0.192766 3.29516 0 0.619836 3.29448 0 0.331766 3.29513 0 0.480834 3.2949 0 0.0168818 3.43671 0 0.833325 3.4353 0 0.0864427 3.43676 0 0.76378 3.4356 0 0.201711 3.43679 0 0.648531 3.43602 0 0.347146 3.43669 0 0.503109 3.43642 0 0.0164941 3.36334 0 0.814251 3.36199 0 0.0844582 3.36343 0 0.746294 3.3623 0 0.197082 3.36349 0 0.633679 3.36275 0 0.339187 3.36342 0 0.491581 3.36316 0 0.0198132 3.99206 0 0.978072 3.99203 0 0.101452 3.99206 0 0.896434 3.99203 0 0.236733 3.99206 0 0.761154 3.99204 0 0.40742 3.99205 0 0.590467 3.99205 0 0.0177862 3.60795 0 0.877899 3.60668 0 0.0910728 3.60796 0 0.804635 3.60691 0 0.212511 3.60793 0 0.683226 3.60724 0 0.365727 3.60781 0 0.530029 3.60757 0 0.0196405 3.95933 0 0.969532 3.95917 0 0.100568 3.95933 0 0.888609 3.9592 0 0.234669 3.95932 0 0.754512 3.95923 0 0.403868 3.95931 0 0.585317 3.95927 0 0.017959 3.64067 0 0.886424 3.63946 0 0.0919573 3.64068 0 0.812449 3.63968 0 0.214575 3.64065 0 0.68986 3.63999 0 0.369279 3.64053 0 0.535176 3.64029 0 0.0193544 3.90511 0 0.955382 3.90473 0 0.0991029 3.9051 0 0.875642 3.90479 0 0.23125 3.90509 0 0.743506 3.90488 0 0.397981 3.90504 0 0.576782 3.90497 0 0.0182452 3.6949 0 0.900556 3.69382 0 0.0934228 3.6949 0 0.8254 3.694 0 0.217994 3.69486 0 0.700856 3.69427 0 0.375164 3.69475 0 0.543705 3.69454 0 0.0189934 3.83669 0 0.937531 3.83605 0 0.0972543 3.83668 0 0.859284 3.83616 0 0.226935 3.83665 0 0.729621 3.83631 0 0.390554 3.83658 0 0.566014 3.83646 0 0.0186063 3.76331 0 0.918394 3.76243 0 0.0952717 3.76331 0 0.841747 3.76258 0 0.222309 3.76328 0 0.714734 3.76279 0 0.382589 3.76318 0 0.554469 3.76301 0 1.0177 3.99202 0 1.97594 3.99193 0 1.09934 3.99202 0 1.89431 3.99194 0 1.23462 3.99201 0 1.75903 3.99195 0 1.4053 3.99199 0 1.58835 3.99197 0 0.913459 3.60656 0 1.77305 3.60204 0 0.986717 3.60629 0 1.69985 3.60255 0 1.1081 3.60581 0 1.57853 3.60334 0 1.26124 3.60511 0 1.42544 3.60424 0 1.00881 3.95916 0 1.95864 3.95866 0 1.08973 3.95913 0 1.87772 3.95872 0 1.22383 3.95907 0 1.74363 3.9588 0 1.39302 3.95899 0 1.57445 3.9589 0 0.922329 3.63935 0 1.7903 3.63518 0 0.9963 3.63911 0 1.71638 3.63565 0 1.11886 3.63866 0 1.59388 3.63637 0 1.27349 3.63801 0 1.43929 3.63721 0 0.994086 3.9047 0 1.92996 3.90355 0 1.07382 3.90463 0 1.85023 3.90368 0 1.20595 3.9045 0 1.71812 3.90388 0 1.37266 3.90432 0 1.55143 3.9041 0 0.937034 3.69372 0 1.8189 3.69014 0 1.01219 3.69351 0 1.74379 3.69054 0 1.13671 3.69312 0 1.61933 3.69116 0 1.29381 3.69256 0 1.46226 3.69188 0 0.97551 3.836 0 1.89379 3.83404 0 1.05375 3.83588 0 1.81557 3.83426 0 1.18341 3.83567 0 1.68595 3.83459 0 1.34698 3.83536 0 1.52239 3.83499 0 0.955596 3.76236 0 1.85502 3.75954 0 1.03224 3.76219 0 1.77841 3.75985 0 1.15923 3.76188 0 1.65146 3.76034 0 1.31946 3.76144 0 1.49127 3.7609 0 1.80004 3.5857 0 2.65459 3.57762 0 1.87289 3.58514 0 2.58184 3.57844 0 1.99358 3.58415 0 2.46125 3.57973 0 2.14584 3.58282 0 2.30908 3.58128 0 1.59446 3.19839 0 2.35075 3.18346 0 1.65897 3.19738 0 2.28641 3.18499 0 1.76584 3.1956 0 2.17975 3.18743 0 1.90063 3.19316 0 2.0451 3.19031 0 1.78246 3.55257 0 2.62858 3.54387 0 1.85459 3.55197 0 2.55655 3.54475 0 1.9741 3.55091 0 2.43716 3.54615 0 2.12486 3.54948 0 2.28649 3.54782 0 1.61191 3.23124 0 2.3765 3.21686 0 1.67712 3.23027 0 2.31145 3.21833 0 1.78516 3.22855 0 2.20361 3.22068 0 1.92142 3.22619 0 2.06748 3.22345 0 1.75336 3.49772 0 2.58552 3.48801 0 1.8243 3.49705 0 2.51468 3.48899 0 1.94185 3.49587 0 2.39727 3.49056 0 2.09012 3.49427 0 2.24909 3.49242 0 1.64084 3.28574 0 2.41923 3.27228 0 1.70723 3.28483 0 2.35299 3.27366 0 1.8172 3.28321 0 2.2432 3.27584 0 1.95592 3.28101 0 2.10461 3.27844 0 1.71668 3.42861 0 2.53128 3.41765 0 1.78614 3.42785 0 2.46195 3.41876 0 1.90121 3.42653 0 2.34703 3.42053 0 2.04636 3.42473 0 2.20197 3.42264 0 1.6774 3.35462 0 2.47324 3.34235 0 1.74527 3.35378 0 2.40551 3.3436 0 1.8577 3.3523 0 2.29325 3.34558 0 1.99952 3.35029 0 2.15154 3.34794 0 2.01557 3.99192 0 2.97379 3.99176 0 2.09721 3.99191 0 2.89216 3.99178 0 2.23248 3.99189 0 2.75689 3.9918 0 2.40316 3.99186 0 2.58621 3.99183 0 1.80858 3.60179 0 2.66723 3.59401 0 1.88177 3.60125 0 2.59412 3.59479 0 2.00304 3.6003 0 2.47296 3.59604 0 2.15603 3.59902 0 2.32005 3.59753 0 1.99791 3.95864 0 2.94763 3.95781 0 2.07883 3.95858 0 2.86672 3.9579 0 2.21291 3.95848 0 2.73266 3.95803 0 2.38208 3.95834 0 2.56349 3.95818 0 1.82618 3.63495 0 2.69327 3.6278 0 1.90009 3.63445 0 2.61944 3.62852 0 2.02254 3.63358 0 2.49708 3.62967 0 2.17703 3.6324 0 2.34266 3.63103 0 1.96865 3.90349 0 2.90428 3.90157 0 2.04837 3.90335 0 2.82458 3.90176 0 2.18047 3.90312 0 2.69251 3.90207 0 2.34714 3.9028 0 2.52586 3.90244 0 1.85535 3.68994 0 2.73647 3.68384 0 1.93045 3.68951 0 2.66143 3.68445 0 2.05488 3.68877 0 2.53709 3.68543 0 2.21186 3.68776 0 2.38017 3.6866 0 1.93175 3.83393 0 2.84961 3.83064 0 2.00997 3.8337 0 2.77143 3.83097 0 2.13956 3.8333 0 2.64188 3.8315 0 2.30307 3.83275 0 2.4784 3.83212 0 1.8922 3.75939 0 2.79103 3.75463 0 1.9688 3.75905 0 2.71448 3.75511 0 2.09572 3.75847 0 2.58763 3.75587 0 2.25585 3.75769 0 2.42755 3.75678 0 3.01342 3.99175 0 3.97162 3.99153 0 3.09505 3.99174 0 3.88998 3.99155 0 3.23033 3.99171 0 3.75471 3.99158 0 3.401 3.99167 0 3.58404 3.99163 0 2.70271 3.59362 0 3.55999 3.58258 0 2.7758 3.5928 0 3.48701 3.58364 0 2.8969 3.5914 0 3.36606 3.58535 0 3.04965 3.58953 0 3.21341 3.58742 0 2.9869 3.95777 0 3.93648 3.95662 0 3.06781 3.95769 0 3.85559 3.95673 0 3.20187 3.95754 0 3.72154 3.95691 0 3.37101 3.95735 0 3.5524 3.95712 0 2.7291 3.62744 0 3.59495 3.61731 0 2.80292 3.62669 0 3.52124 3.61828 0 2.92522 3.6254 0 3.39907 3.61985 0 3.07949 3.62369 0 3.24489 3.62175 0 2.94297 3.90148 0 3.87827 3.89879 0 3.02266 3.90128 0 3.7986 3.89904 0 3.15472 3.90093 0 3.66658 3.89946 0 3.32133 3.90048 0 3.49999 3.89996 0 2.77288 3.68354 0 3.65293 3.67492 0 2.8479 3.6829 0 3.578 3.67575 0 2.9722 3.6818 0 3.45382 3.67708 0 3.12899 3.68034 0 3.2971 3.6787 0 2.88756 3.83048 0 3.80485 3.82585 0 2.96573 3.83013 0 3.72673 3.82629 0 3.09526 3.82954 0 3.59726 3.82701 0 3.25867 3.82876 0 3.43389 3.82787 0 2.82818 3.7544 0 3.72619 3.7477 0 2.90472 3.7539 0 3.64972 3.74834 0 3.03154 3.75305 0 3.52299 3.74938 0 3.19153 3.75191 0 3.36307 3.75064 0 1.25078 0.133338 0 1.24548 0.00266059 0 1.25053 0.122065 0 1.24612 0.0136424 0 1.25003 0.103438 0 1.24711 0.0319063 0 1.24925 0.0800344 0 1.24822 0.0550642 0 1.14153 0.117123 0 1.14082 0.0023335 0 1.1416 0.107209 0 1.14098 0.011967 0 1.14166 0.0908318 0 1.14122 0.0279944 0 1.14162 0.0702622 0 1.14146 0.0483269 0 1.24027 0.131875 0 1.23532 0.00263099 0 1.24005 0.120725 0 1.23592 0.0134909 0 1.23959 0.1023 0 1.23685 0.0315525 0 1.23886 0.0791516 0 1.2379 0.0544553 0 1.15058 0.11858 0 1.14946 0.00236275 0 1.15062 0.108543 0 1.14966 0.0121169 0 1.15062 0.0919628 0 1.14996 0.0283446 0 1.15051 0.0711383 0 1.15027 0.0489304 0 1.22372 0.129544 0 1.21937 0.00258385 0 1.22353 0.118588 0 1.2199 0.0132494 0 1.22314 0.100487 0 1.22073 0.030989 0 1.2225 0.0777452 0 1.22166 0.0534852 0 1.16532 0.120902 0 1.16352 0.00240946 0 1.16531 0.11067 0 1.16378 0.0123562 0 1.16522 0.0937672 0 1.16419 0.0289035 0 1.165 0.0725362 0 1.16463 0.0498937 0 1.204 0.126713 0 1.20045 0.00252664 0 1.20387 0.115994 0 1.2009 0.0129564 0 1.20357 0.0982846 0 1.20159 0.0303051 0 1.20306 0.0760378 0 1.20236 0.0523076 0 1.1838 0.123727 0 1.18115 0.00246637 0 1.18373 0.113258 0 1.1815 0.0126477 0 1.18354 0.0959628 0 1.18204 0.0295844 0 1.18317 0.0742378 0 1.18264 0.0510665 0 1.1325 0.238392 0 1.13701 0.121189 0 1.13316 0.228321 0 1.13687 0.131074 0 1.13413 0.211663 0 1.13654 0.147501 0 1.13513 0.190702 0 1.13597 0.168305 0 0.986309 0.188954 0 0.999225 0.0961323 0 0.98776 0.180988 0 0.998467 0.103969 0 0.990017 0.167806 0 0.997074 0.116989 0 0.992607 0.151213 0 0.995068 0.133473 0 1.12268 0.235254 0 1.12765 0.119589 0 1.12338 0.225315 0 1.12747 0.129345 0 1.12442 0.208875 0 1.12708 0.145556 0 1.12551 0.18819 0 1.12643 0.166086 0 1.00243 0.194578 0 1.01431 0.098969 0 1.00378 0.18637 0 1.01362 0.107039 0 1.00588 0.17279 0 1.01236 0.120448 0 1.00827 0.155697 0 1.01052 0.137425 0 1.10572 0.229742 0 1.11154 0.116782 0 1.1065 0.220036 0 1.11129 0.126309 0 1.10766 0.203981 0 1.11079 0.142142 0 1.1089 0.183779 0 1.10999 0.162192 0 1.02724 0.203187 0 1.03756 0.103317 0 1.02844 0.194611 0 1.03698 0.111745 0 1.03029 0.180422 0 1.03591 0.125748 0 1.03239 0.162565 0 1.03434 0.143479 0 1.08273 0.222113 0 1.08978 0.112904 0 1.08362 0.21273 0 1.08943 0.122116 0 1.08497 0.197209 0 1.08877 0.137423 0 1.08644 0.177679 0 1.08776 0.156809 0 1.05554 0.21291 0 1.06414 0.108237 0 1.05658 0.203919 0 1.06369 0.117068 0 1.05816 0.189044 0 1.06283 0.131741 0 1.05993 0.170327 0 1.06155 0.150322 0 1.25001 0.272787 0 1.25088 0.138819 0 1.25036 0.261281 0 1.25106 0.150126 0 1.25081 0.242247 0 1.25126 0.168911 0 1.25119 0.218295 0 1.25134 0.192695 0 1.13717 0.239871 0 1.14148 0.121944 0 1.13782 0.229738 0 1.14135 0.13189 0 1.13875 0.212976 0 1.14105 0.148419 0 1.13972 0.191887 0 1.14051 0.169351 0 1.23928 0.269826 0 1.24037 0.137296 0 1.23964 0.258442 0 1.24053 0.148481 0 1.24013 0.239612 0 1.2407 0.167063 0 1.24054 0.215916 0 1.24073 0.190591 0 1.14665 0.242839 0 1.15054 0.123459 0 1.14726 0.232581 0 1.15045 0.133529 0 1.14813 0.215614 0 1.15021 0.150261 0 1.14903 0.194265 0 1.14974 0.171451 0 1.22233 0.265105 0 1.22379 0.13487 0 1.22273 0.253917 0 1.22392 0.14586 0 1.22326 0.235411 0 1.22403 0.164119 0 1.22374 0.212125 0 1.224 0.187238 0 1.16203 0.247567 0 1.16531 0.125877 0 1.16258 0.237111 0 1.16527 0.136142 0 1.16337 0.219815 0 1.16512 0.153198 0 1.16416 0.198053 0 1.16476 0.174799 0 1.20208 0.259367 0 1.20405 0.131924 0 1.20252 0.248418 0 1.20413 0.142677 0 1.20313 0.230307 0 1.20417 0.160543 0 1.20368 0.207519 0 1.20404 0.183165 0 1.18122 0.253308 0 1.18383 0.128816 0 1.18171 0.242612 0 1.18384 0.139319 0 1.18241 0.224919 0 1.18379 0.156769 0 1.18308 0.202657 0 1.18355 0.178867 0 0.940574 1.14456 0 1.06235 1.10064 0 0.951131 1.1411 0 1.05217 1.10465 0 0.968554 1.13525 0 1.03521 1.1112 0 0.990408 1.12766 0 1.01368 1.11926 0 0.811996 1.01174 0 0.914461 0.9591 0 0.820933 1.00759 0 0.905951 0.963898 0 0.835662 1.00058 0 0.891754 0.97173 0 0.854098 0.99147 0 0.873679 0.981394 0 0.929245 1.13267 0 1.04934 1.08811 0 0.939661 1.12916 0 1.03931 1.09218 0 0.956851 1.12323 0 1.02259 1.09882 0 0.978408 1.11553 0 1.00136 1.10701 0 0.82369 1.02383 0 0.927916 0.971992 0 0.832775 1.01976 0 0.919253 0.97672 0 0.847751 1.01285 0 0.904806 0.984438 0 0.866498 1.00388 0 0.886416 0.993958 0 0.911045 1.11372 0 1.02844 1.06802 0 0.921235 1.11012 0 1.01863 1.0722 0 0.938046 1.10404 0 1.00231 1.07901 0 0.959124 1.09614 0 0.981556 1.0874 0 0.842331 1.04303 0 0.94937 0.992505 0 0.851653 1.03906 0 0.940465 0.997116 0 0.867021 1.03234 0 0.925616 1.00464 0 0.886267 1.02359 0 0.906721 1.01392 0 0.888717 1.09066 0 1.00276 1.04346 0 0.898626 1.08695 0 0.993248 1.04777 0 0.91497 1.08067 0 0.977399 1.05481 0 0.935456 1.07251 0 0.957248 1.06348 0 0.864949 1.06625 0 0.975406 1.01735 0 0.874557 1.06241 0 0.966205 1.02182 0 0.890402 1.0559 0 0.950868 1.0291 0 0.910253 1.04744 0 0.931361 1.03809 0 0.695113 1.05047 0 0.801858 1.00769 0 0.704372 1.04727 0 0.792941 1.01176 0 0.719652 1.04179 0 0.778088 1.01834 0 0.738814 1.03452 0 0.759213 1.02633 0 0.53258 0.854998 0 0.611255 0.801589 0 0.539448 0.850763 0 0.604731 0.806448 0 0.550767 0.843615 0 0.593842 0.814376 0 0.564931 0.834363 0 0.579969 0.824156 0 0.684656 1.03838 0 0.789597 0.994878 0 0.693763 1.03513 0 0.780836 0.999009 0 0.70879 1.02954 0 0.766239 1.00569 0 0.727633 1.02215 0 0.747688 1.01382 0 0.550883 0.877717 0 0.632719 0.825417 0 0.558023 0.873607 0 0.625928 0.830208 0 0.569791 0.866651 0 0.614595 0.838013 0 0.584519 0.857618 0 0.600161 0.84762 0 0.666338 1.01705 0 0.768116 0.972267 0 0.675178 1.01368 0 0.759626 0.976508 0 0.689761 1.00792 0 0.745479 0.983371 0 0.708043 1.0003 0 0.727493 0.991728 0 0.578969 0.912291 0 0.665656 0.861735 0 0.586524 0.90837 0 0.658453 0.866411 0 0.59898 0.901707 0 0.646439 0.874015 0 0.614574 0.893014 0 0.631142 0.883345 0 0.641096 0.987274 0 0.738514 0.940772 0 0.649567 0.983756 0 0.730398 0.945152 0 0.663537 0.977736 0 0.716869 0.952249 0 0.681044 0.969808 0 0.699661 0.960907 0 0.610807 0.951001 0 0.702993 0.902487 0 0.618833 0.94729 0 0.695323 0.90702 0 0.632066 0.940958 0 0.682534 0.914376 0 0.648641 0.932655 0 0.666259 0.923372 0 0.809234 1.18197 0 0.935438 1.14621 0 0.820123 1.17926 0 0.924836 1.14958 0 0.838115 1.17463 0 0.9072 1.15504 0 0.86072 1.16853 0 0.884836 1.16169 0 0.700048 1.05615 0 0.807645 1.01372 0 0.709378 1.05298 0 0.798654 1.01776 0 0.724777 1.04754 0 0.783679 1.02428 0 0.744091 1.04034 0 0.764653 1.03222 0 0.799591 1.17057 0 0.924178 1.13435 0 0.810344 1.16783 0 0.913715 1.13777 0 0.82811 1.16314 0 0.89631 1.1433 0 0.850429 1.15697 0 0.874236 1.15004 0 0.709961 1.06753 0 0.819267 1.02579 0 0.719436 1.06442 0 0.810129 1.02976 0 0.735073 1.05906 0 0.79491 1.03618 0 0.754689 1.05198 0 0.775578 1.04399 0 0.78411 1.15246 0 0.906088 1.11544 0 0.794644 1.14967 0 0.895851 1.11894 0 0.812047 1.14489 0 0.87882 1.1246 0 0.833905 1.13859 0 0.857214 1.13151 0 0.725768 1.08559 0 0.837793 1.04494 0 0.73547 1.08256 0 0.82842 1.04881 0 0.751487 1.07735 0 0.812813 1.05506 0 0.771585 1.07045 0 0.792993 1.06266 0 0.765135 1.13055 0 0.883895 1.09243 0 0.775401 1.12769 0 0.873938 1.09605 0 0.792355 1.12278 0 0.857367 1.10189 0 0.813644 1.1163 0 0.836338 1.10901 0 0.744956 1.10747 0 0.860273 1.06809 0 0.754934 1.10452 0 0.850614 1.07183 0 0.771409 1.09947 0 0.834536 1.07788 0 0.792089 1.09278 0 0.814126 1.08524 0 1.19933 0.697473 0 1.22351 0.562065 0 1.2017 0.686015 0 1.22175 0.573663 0 1.20551 0.666991 0 1.21872 0.592862 0 1.21007 0.642924 0 1.21468 0.617047 0 1.07482 0.612799 0 1.10265 0.494332 0 1.07753 0.602803 0 1.10058 0.504503 0 1.08187 0.586191 0 1.09705 0.521332 0 1.08709 0.565157 0 1.09238 0.542514 0 1.18795 0.689918 0 1.21231 0.556006 0 1.19034 0.678589 0 1.21053 0.567477 0 1.19417 0.659777 0 1.20748 0.586467 0 1.19876 0.635978 0 1.2034 0.610386 0 1.08589 0.620499 0 1.11316 0.500479 0 1.08855 0.610369 0 1.11114 0.510781 0 1.09281 0.593536 0 1.10768 0.527827 0 1.09792 0.572224 0 1.10311 0.549285 0 1.16987 0.677851 0 1.19454 0.546334 0 1.17229 0.666728 0 1.19274 0.557604 0 1.17617 0.648257 0 1.18964 0.576258 0 1.18082 0.624886 0 1.18552 0.599752 0 1.10355 0.632738 0 1.13006 0.510253 0 1.10615 0.622395 0 1.1281 0.520762 0 1.11029 0.605211 0 1.12475 0.538153 0 1.11527 0.583457 0 1.12031 0.560047 0 1.14802 0.663142 0 1.17315 0.534559 0 1.15049 0.652273 0 1.17131 0.545581 0 1.15443 0.634219 0 1.16815 0.563825 0 1.15916 0.611374 0 1.16394 0.5868 0 1.12511 0.647557 0 1.15086 0.522094 0 1.12764 0.636956 0 1.14897 0.532854 0 1.13167 0.619348 0 1.14572 0.550661 0 1.13651 0.597061 0 1.14141 0.573083 0 1.02942 0.728216 0 1.06796 0.61377 0 1.03318 0.71863 0 1.06512 0.623666 0 1.0392 0.70267 0 1.06024 0.640011 0 1.04643 0.682408 0 1.05377 0.660534 0 0.83016 0.570618 0 0.883058 0.482957 0 0.835041 0.563329 0 0.878929 0.490588 0 0.842976 0.551172 0 0.871931 0.503173 0 0.852717 0.535695 0 0.862824 0.518939 0 1.01698 0.718294 0 1.05626 0.605542 0 1.02081 0.708853 0 1.05336 0.615295 0 1.02693 0.693135 0 1.04838 0.631404 0 1.0343 0.673177 0 1.04178 0.651626 0 0.853156 0.588663 0 0.904236 0.497946 0 0.857905 0.581113 0 0.900277 0.505837 0 0.865611 0.568523 0 0.893559 0.518852 0 0.875041 0.552502 0 0.884796 0.535161 0 0.995067 0.700831 0 1.03573 0.591059 0 0.99901 0.691648 0 1.03271 0.600562 0 1.00533 0.676354 0 1.02754 0.616254 0 1.01295 0.656929 0 1.0207 0.635948 0 0.888214 0.616235 0 0.936569 0.520845 0 0.892762 0.608286 0 0.932864 0.529132 0 0.900119 0.595034 0 0.92656 0.542805 0 0.909082 0.578179 0 0.918309 0.559945 0 0.964582 0.676603 0 1.00731 0.570959 0 0.968695 0.667774 0 1.00411 0.580113 0 0.975306 0.653068 0 0.998641 0.595226 0 0.98329 0.634381 0 0.99143 0.614188 0 0.927573 0.647291 0 0.972961 0.54663 0 0.931897 0.638891 0 0.969527 0.555364 0 0.938865 0.624892 0 0.963668 0.569778 0 0.947315 0.607096 0 0.955968 0.587855 0 1.16497 0.835744 0 1.19815 0.703028 0 1.16817 0.824577 0 1.19568 0.714458 0 1.17331 0.806009 0 1.19145 0.733354 0 1.17952 0.782474 0 1.18585 0.757111 0 1.03528 0.732889 0 1.07348 0.617644 0 1.039 0.723233 0 1.07066 0.627607 0 1.04497 0.707159 0 1.06583 0.644064 0 1.05215 0.686755 0 1.05942 0.664728 0 1.15328 0.826591 0 1.18676 0.69541 0 1.15651 0.815557 0 1.18427 0.706711 0 1.16171 0.797208 0 1.18001 0.725393 0 1.16798 0.773948 0 1.17436 0.748878 0 1.04701 0.742255 0 1.08457 0.625409 0 1.05067 0.732461 0 1.0818 0.635507 0 1.05654 0.716159 0 1.07705 0.652187 0 1.0636 0.695467 0 1.07075 0.673135 0 1.13467 0.811959 0 1.16867 0.683243 0 1.13796 0.801137 0 1.16615 0.694337 0 1.14325 0.78314 0 1.16183 0.712674 0 1.14962 0.760321 0 1.1561 0.735722 0 1.06565 0.757141 0 1.10227 0.637751 0 1.06923 0.747127 0 1.09957 0.648063 0 1.07495 0.730462 0 1.09494 0.665098 0 1.08183 0.709315 0 1.0888 0.686496 0 1.11209 0.794103 0 1.1468 0.668411 0 1.11546 0.783543 0 1.14424 0.679251 0 1.12087 0.765978 0 1.13983 0.697166 0 1.12739 0.743701 0 1.134 0.719679 0 1.08825 0.775162 0 1.12386 0.652695 0 1.09172 0.764881 0 1.12124 0.663264 0 1.09729 0.747776 0 1.11673 0.680729 0 1.10398 0.726078 0 1.11076 0.702672 0 1.97497 1.19686 0 1.99127 0.965527 0 1.97659 1.1772 0 1.99011 0.985279 0 1.97918 1.14461 0 1.9881 1.01799 0 1.98228 1.10344 0 1.98539 1.05924 0 1.78183 1.07313 0 1.79954 0.865335 0 1.78359 1.05549 0 1.79829 0.883083 0 1.78641 1.02622 0 1.79611 0.912479 0 1.78978 0.989242 0 1.79317 0.94954 0 1.95858 1.18636 0 1.97499 0.957026 0 1.96021 1.16688 0 1.97383 0.976607 0 1.96282 1.13456 0 1.9718 1.00904 0 1.96594 1.09375 0 1.96907 1.04994 0 1.79835 1.08372 0 1.81594 0.87391 0 1.80011 1.0659 0 1.8147 0.891829 0 1.8029 1.03635 0 1.81253 0.92151 0 1.80625 0.999017 0 1.80961 0.95893 0 1.9314 1.16895 0 1.948 0.942925 0 1.93305 1.14975 0 1.94682 0.962225 0 1.93569 1.1179 0 1.94477 0.994192 0 1.93884 1.07768 0 1.94201 1.0345 0 1.82571 1.10125 0 1.84308 0.888101 0 1.82744 1.08315 0 1.84185 0.906304 0 1.8302 1.05312 0 1.83971 0.936455 0 1.83351 1.01519 0 1.83683 0.974469 0 1.89705 1.14695 0 1.9139 0.925111 0 1.89873 1.12811 0 1.9127 0.944055 0 1.90141 1.09686 0 1.91063 0.975432 0 1.90461 1.05738 0 1.90783 1.01499 0 1.86017 1.12333 0 1.87728 0.905976 0 1.86187 1.10486 0 1.87607 0.924537 0 1.86459 1.07425 0 1.87396 0.955281 0 1.86785 1.03557 0 1.87112 0.994042 0 1.74829 1.28133 0 1.77292 1.07651 0 1.75065 1.26399 0 1.77108 1.09405 0 1.75444 1.2352 0 1.76792 1.12308 0 1.75904 1.19879 0 1.76375 1.15965 0 1.55039 1.1309 0 1.57732 0.950161 0 1.55296 1.11562 0 1.5753 0.965658 0 1.55711 1.09024 0 1.57185 0.991303 0 1.56214 1.05813 0 1.56728 1.02359 0 1.73155 1.26861 0 1.75636 1.06581 0 1.73392 1.25144 0 1.7545 1.08318 0 1.73774 1.22293 0 1.75132 1.11193 0 1.74238 1.18689 0 1.74712 1.14814 0 1.56738 1.14382 0 1.5941 0.961005 0 1.56993 1.12836 0 1.5921 0.976678 0 1.57404 1.10268 0 1.58867 1.00262 0 1.57904 1.0702 0 1.58414 1.03527 0 1.70376 1.24749 0 1.72888 1.04807 0 1.70616 1.2306 0 1.727 1.06515 0 1.71003 1.20258 0 1.72378 1.09343 0 1.71473 1.16714 0 1.71953 1.12904 0 1.59547 1.16518 0 1.62186 0.978938 0 1.59799 1.14942 0 1.61988 0.994902 0 1.60206 1.12326 0 1.6165 1.02132 0 1.60699 1.09017 0 1.61203 1.05459 0 1.66861 1.22078 0 1.69414 1.02563 0 1.67105 1.20426 0 1.69223 1.04235 0 1.67499 1.17684 0 1.68896 1.07002 0 1.67976 1.14216 0 1.68463 1.10487 0 1.63082 1.19205 0 1.65679 1.0015 0 1.6333 1.17592 0 1.65484 1.01783 0 1.6373 1.14916 0 1.65151 1.04486 0 1.64215 1.1153 0 1.64711 1.07889 0 1.95171 1.43589 0 1.97417 1.20639 0 1.95385 1.41644 0 1.97249 1.22603 0 1.95731 1.38415 0 1.96961 1.25853 0 1.96151 1.34334 0 1.9658 1.29949 0 1.75641 1.28751 0 1.78095 1.08169 0 1.75876 1.27008 0 1.77912 1.09932 0 1.76254 1.24114 0 1.77597 1.12849 0 1.76713 1.20456 0 1.77181 1.16524 0 1.93514 1.42331 0 1.95777 1.19581 0 1.9373 1.40402 0 1.95608 1.21528 0 1.94079 1.37202 0 1.95317 1.2475 0 1.94501 1.33157 0 1.94934 1.2881 0 1.77313 1.30021 0 1.79749 1.09237 0 1.77546 1.28261 0 1.79566 1.11016 0 1.77921 1.25339 0 1.79254 1.13962 0 1.78376 1.21644 0 1.78842 1.17673 0 1.90766 1.40243 0 1.93058 1.17827 0 1.90985 1.38343 0 1.92886 1.19745 0 1.91338 1.3519 0 1.92592 1.2292 0 1.91766 1.31204 0 1.92204 1.26921 0 1.8008 1.32124 0 1.82485 1.11003 0 1.8031 1.30334 0 1.82305 1.12811 0 1.8068 1.27365 0 1.81997 1.15805 0 1.8113 1.2361 0 1.81589 1.19575 0 1.87294 1.37605 0 1.89622 1.1561 0 1.87516 1.35741 0 1.89448 1.17492 0 1.87875 1.32648 0 1.89149 1.20609 0 1.8831 1.28737 0 1.88755 1.24535 0 1.83564 1.34771 0 1.85932 1.13228 0 1.83791 1.32946 0 1.85755 1.15072 0 1.84155 1.29917 0 1.85451 1.18125 0 1.84598 1.26087 0 1.8505 1.21971 0 2.00411 0.232892 0 1.99625 0.0046887 0 2.00366 0.213351 0 1.99714 0.0240221 0 2.00282 0.181008 0 1.99852 0.0561066 0 2.0016 0.140269 0 2.0001 0.0966707 0 1.81298 0.207917 0 1.80422 0.00417774 0 1.81247 0.190443 0 1.80519 0.021408 0 1.81152 0.16153 0 1.80672 0.0500158 0 1.81016 0.125133 0 1.80848 0.0862072 0 1.98785 0.23077 0 1.97989 0.00464526 0 1.98739 0.211405 0 1.98079 0.0237999 0 1.98654 0.179353 0 1.98218 0.0555889 0 1.9853 0.138982 0 1.98378 0.0957814 0 1.82928 0.210051 0 1.82058 0.00422137 0 1.82877 0.1924 0 1.82155 0.0216312 0 1.82784 0.163194 0 1.82307 0.0505359 0 1.82648 0.126426 0 1.82482 0.0871009 0 1.96089 0.227252 0 1.95278 0.00457324 0 1.96042 0.208177 0 1.95369 0.0234314 0 1.95955 0.176609 0 1.95511 0.0547305 0 1.95829 0.13685 0 1.95674 0.0943069 0 1.85629 0.213584 0 1.84769 0.00429361 0 1.85579 0.195641 0 1.84865 0.0220009 0 1.85486 0.16595 0 1.85015 0.0513973 0 1.85352 0.128567 0 1.85188 0.0885807 0 1.92686 0.222808 0 1.91858 0.00448231 0 1.92638 0.204101 0 1.9195 0.0229662 0 1.92549 0.173143 0 1.92095 0.0536466 0 1.9242 0.134157 0 1.92262 0.092445 0 1.89035 0.218038 0 1.88189 0.00438471 0 1.88986 0.199726 0 1.88284 0.0224669 0 1.88895 0.169423 0 1.88432 0.0524832 0 1.88763 0.131265 0 1.88602 0.0904463 0 1.80769 0.4208 0 1.80529 0.215328 0 1.80773 0.403218 0 1.80574 0.232745 0 1.80769 0.37411 0 1.80638 0.261647 0 1.80747 0.337438 0 1.80701 0.29818 0 1.61578 0.370327 0 1.61352 0.189157 0 1.61585 0.354805 0 1.61397 0.204492 0 1.61585 0.329115 0 1.61461 0.229949 0 1.61567 0.29676 0 1.61524 0.262145 0 1.79139 0.416519 0 1.78898 0.213106 0 1.79143 0.399112 0 1.78943 0.230347 0 1.7914 0.370294 0 1.79008 0.258957 0 1.79117 0.333987 0 1.79071 0.295123 0 1.63219 0.374649 0 1.62989 0.191396 0 1.63225 0.35895 0 1.63034 0.206909 0 1.63225 0.332966 0 1.63099 0.232661 0 1.63206 0.300242 0 1.63162 0.265228 0 1.76436 0.409419 0 1.76195 0.209422 0 1.76441 0.392301 0 1.7624 0.22637 0 1.76438 0.363963 0 1.76305 0.254495 0 1.76415 0.328263 0 1.76369 0.290051 0 1.65935 0.3818 0 1.657 0.195101 0 1.65941 0.365809 0 1.65746 0.210909 0 1.6594 0.339341 0 1.65811 0.237149 0 1.65919 0.306003 0 1.65874 0.270332 0 1.73023 0.400447 0 1.72782 0.204768 0 1.73028 0.383695 0 1.72827 0.221345 0 1.73025 0.355964 0 1.72892 0.248858 0 1.73003 0.32103 0 1.72957 0.283644 0 1.69358 0.390807 0 1.69119 0.199769 0 1.69363 0.374448 0 1.69164 0.215949 0 1.69361 0.34737 0 1.6923 0.242804 0 1.69339 0.313261 0 1.69294 0.276761 0 2.00631 0.472879 0 2.00432 0.242382 0 2.00636 0.453179 0 2.00471 0.261947 0 2.00636 0.420557 0 2.00527 0.2944 0 2.00619 0.37944 0 2.00581 0.335403 0 1.81559 0.422876 0 1.81321 0.216406 0 1.81563 0.405209 0 1.81365 0.233909 0 1.8156 0.375962 0 1.81429 0.262952 0 1.81538 0.339112 0 1.81492 0.299664 0 1.99009 0.468633 0 1.98805 0.240175 0 1.99014 0.449105 0 1.98845 0.259565 0 1.99014 0.41677 0 1.98902 0.291729 0 1.98996 0.376014 0 1.98957 0.332367 0 1.83188 0.427151 0 1.82951 0.218626 0 1.83192 0.409311 0 1.82995 0.236305 0 1.83189 0.379774 0 1.83059 0.26564 0 1.83167 0.342559 0 1.83121 0.302719 0 1.96321 0.461592 0 1.9611 0.236516 0 1.96326 0.44235 0 1.96151 0.255615 0 1.96324 0.41049 0 1.96209 0.287299 0 1.96306 0.370335 0 1.96265 0.327334 0 1.85885 0.434229 0 1.85652 0.222301 0 1.85889 0.4161 0 1.85695 0.240272 0 1.85886 0.386086 0 1.85758 0.270089 0 1.85864 0.348266 0 1.85819 0.307776 0 1.92927 0.452698 0 1.92708 0.231895 0 1.92932 0.433818 0 1.92749 0.250627 0 1.92929 0.402557 0 1.92809 0.281704 0 1.9291 0.363161 0 1.92868 0.320976 0 1.89284 0.443147 0 1.89057 0.226933 0 1.89289 0.424656 0 1.891 0.245272 0 1.89286 0.39404 0 1.89161 0.275697 0 1.89265 0.355458 0 1.89222 0.31415 0 0.397419 1.24504 0 0.531209 1.23139 0 0.408784 1.24413 0 0.519827 1.23278 0 0.42765 1.2425 0 0.500941 1.23499 0 0.451492 1.24026 0 0.477084 1.23764 0 0.343471 1.13096 0 0.459753 1.11308 0 0.353351 1.12969 0 0.449865 1.1148 0 0.36975 1.12745 0 0.433455 1.11759 0 0.390477 1.12443 0 0.412722 1.12098 0 0.392525 1.2343 0 0.524829 1.22038 0 0.403764 1.23336 0 0.513574 1.22178 0 0.42242 1.2317 0 0.494898 1.22404 0 0.445998 1.22941 0 0.471306 1.22673 0 0.348194 1.14075 0 0.466142 1.12336 0 0.358214 1.13952 0 0.456112 1.12503 0 0.374848 1.13735 0 0.439466 1.12775 0 0.395871 1.13442 0 0.418434 1.13106 0 0.384699 1.21734 0 0.514601 1.20294 0 0.395733 1.21636 0 0.503551 1.20438 0 0.41405 1.21462 0 0.485214 1.2067 0 0.437201 1.21224 0 0.46205 1.20947 0 0.355804 1.15653 0 0.476376 1.13987 0 0.366046 1.15535 0 0.466122 1.14148 0 0.383048 1.15329 0 0.449105 1.1441 0 0.404538 1.15049 0 0.427604 1.14727 0 0.375179 1.19703 0 0.502102 1.18199 0 0.38596 1.196 0 0.491306 1.18348 0 0.403857 1.19417 0 0.473391 1.18587 0 0.426477 1.19166 0 0.450758 1.18876 0 0.365176 1.17602 0 0.488875 1.16019 0 0.375683 1.17492 0 0.478354 1.16174 0 0.393125 1.17297 0 0.460895 1.16424 0 0.415172 1.17032 0 0.438836 1.16727 0 0.223232 1.13631 0 0.336378 1.12672 0 0.232685 1.13593 0 0.326593 1.12793 0 0.24844 1.1351 0 0.310422 1.12979 0 0.26847 1.13373 0 0.290112 1.13186 0 0.177471 0.988505 0 0.264075 0.969512 0 0.18482 0.987206 0 0.256679 0.97145 0 0.197013 0.984922 0 0.244426 0.97453 0 0.212423 0.98181 0 0.228975 0.978183 0 0.220066 1.12656 0 0.331529 1.11651 0 0.229382 1.12615 0 0.321893 1.11776 0 0.244909 1.12526 0 0.305967 1.11969 0 0.264643 1.1238 0 0.285962 1.12185 0 0.182374 1.00503 0 0.271992 0.987251 0 0.189958 1.00386 0 0.264322 0.989103 0 0.202553 1.00178 0 0.251621 0.992037 0 0.218485 0.998897 0 0.235615 0.995495 0 0.214622 1.10966 0 0.323124 1.09872 0 0.2237 1.10917 0 0.313751 1.10005 0 0.238825 1.10816 0 0.298259 1.1021 0 0.258041 1.10655 0 0.278793 1.10442 0 0.189982 1.03038 0 0.284216 1.01441 0 0.197929 1.0294 0 0.276128 1.01613 0 0.211138 1.02762 0 0.262741 1.01885 0 0.227871 1.02508 0 0.245887 1.02201 0 0.207307 1.08661 0 0.311708 1.07433 0 0.216058 1.086 0 0.302702 1.07577 0 0.230629 1.08479 0 0.287812 1.07801 0 0.249129 1.08294 0 0.269095 1.08056 0 0.19876 1.05914 0 0.298214 1.04513 0 0.207118 1.05837 0 0.289653 1.04671 0 0.221025 1.05689 0 0.275493 1.04917 0 0.238665 1.05472 0 0.257682 1.05202 0 0.260731 1.25174 0 0.391908 1.24547 0 0.271699 1.25153 0 0.38057 1.24631 0 0.289975 1.25104 0 0.361831 1.24758 0 0.313201 1.25018 0 0.338291 1.24897 0 0.224742 1.14094 0 0.338681 1.13156 0 0.234259 1.14057 0 0.328826 1.13275 0 0.250123 1.13978 0 0.31254 1.13457 0 0.270292 1.13844 0 0.292086 1.13661 0 0.257406 1.24119 0 0.387076 1.23474 0 0.268243 1.24097 0 0.375865 1.2356 0 0.286305 1.24047 0 0.357337 1.23691 0 0.309262 1.23959 0 0.334064 1.23834 0 0.227808 1.1503 0 0.343336 1.14133 0 0.237455 1.14997 0 0.333341 1.14248 0 0.253537 1.14922 0 0.316824 1.14424 0 0.273984 1.14795 0 0.296083 1.1462 0 0.2521 1.22456 0 0.37935 1.2178 0 0.26273 1.22433 0 0.368343 1.2187 0 0.280447 1.22381 0 0.350155 1.22007 0 0.302971 1.22288 0 0.327311 1.22157 0 0.232789 1.16545 0 0.350838 1.15708 0 0.242643 1.16516 0 0.340623 1.15816 0 0.259073 1.16448 0 0.323743 1.15983 0 0.279964 1.1633 0 0.302545 1.16167 0 0.245679 1.20472 0 0.369953 1.19752 0 0.256055 1.20448 0 0.3592 1.19847 0 0.273352 1.20392 0 0.341431 1.19993 0 0.295346 1.20293 0 0.319118 1.20153 0 0.238989 1.18429 0 0.360082 1.17654 0 0.249097 1.18403 0 0.349602 1.17756 0 0.265949 1.18341 0 0.332286 1.17911 0 0.287378 1.18234 0 0.310542 1.18083 0 0.711476 2.0036 0 0.940066 1.99582 0 0.730939 2.00313 0 0.920588 1.99667 0 0.763198 2.00227 0 0.88831 1.99802 0 0.803912 2.00105 0 0.847584 1.99957 0 0.634558 1.8128 0 0.839302 1.80445 0 0.651984 1.8123 0 0.821852 1.80538 0 0.680871 1.81139 0 0.792936 1.80682 0 0.717334 1.81009 0 0.756452 1.80849 0 0.704954 1.98738 0 0.931517 1.97956 0 0.724244 1.98692 0 0.912211 1.98043 0 0.756216 1.98606 0 0.880219 1.98178 0 0.796569 1.98483 0 0.839853 1.98334 0 0.641151 1.8291 0 0.847928 1.82081 0 0.658751 1.82861 0 0.830306 1.82173 0 0.687925 1.82771 0 0.801102 1.82317 0 0.724751 1.82641 0 0.764257 1.82483 0 0.694137 1.9605 0 0.917338 1.95262 0 0.713139 1.96003 0 0.898318 1.95349 0 0.744637 1.95917 0 0.8668 1.95485 0 0.78439 1.95793 0 0.827032 1.95643 0 0.652056 1.8561 0 0.862203 1.8479 0 0.669943 1.85561 0 0.844294 1.84881 0 0.699594 1.85471 0 0.814615 1.85023 0 0.737021 1.85343 0 0.77717 1.85187 0 0.680469 1.92656 0 0.899425 1.91858 0 0.699109 1.92608 0 0.880766 1.91946 0 0.730006 1.92521 0 0.849846 1.92084 0 0.769002 1.92396 0 0.810834 1.92244 0 0.665783 1.89012 0 0.880182 1.88203 0 0.684033 1.88964 0 0.861911 1.88293 0 0.714286 1.88875 0 0.831633 1.88433 0 0.75247 1.88749 0 0.793431 1.88594 0 0.420047 1.80777 0 0.62294 1.80511 0 0.437275 1.80775 0 0.605607 1.80555 0 0.46585 1.80764 0 0.576901 1.80619 0 0.501949 1.80734 0 0.540713 1.80684 0 0.366976 1.61589 0 0.545607 1.61276 0 0.382103 1.61585 0 0.530315 1.61325 0 0.407215 1.6157 0 0.504999 1.61398 0 0.43897 1.61533 0 0.473105 1.61473 0 0.415584 1.79147 0 0.616417 1.78879 0 0.432635 1.79145 0 0.599258 1.78923 0 0.460917 1.79134 0 0.570842 1.78988 0 0.496648 1.79104 0 0.535019 1.79053 0 0.371565 1.6323 0 0.552271 1.62922 0 0.386874 1.63226 0 0.536805 1.62971 0 0.412282 1.63211 0 0.511201 1.63043 0 0.44441 1.63175 0 0.47894 1.63117 0 0.408168 1.76445 0 0.605585 1.76172 0 0.424924 1.76443 0 0.588715 1.76217 0 0.45272 1.76431 0 0.560777 1.76283 0 0.487841 1.76401 0 0.52556 1.76349 0 0.379138 1.65945 0 0.563278 1.65647 0 0.394746 1.65942 0 0.547525 1.65695 0 0.420646 1.65928 0 0.521442 1.65765 0 0.45339 1.65894 0 0.488575 1.65837 0 0.398772 1.73032 0 0.591874 1.72753 0 0.415156 1.7303 0 0.575367 1.72798 0 0.442337 1.73017 0 0.548033 1.72865 0 0.476685 1.72986 0 0.513581 1.72933 0 0.388641 1.69367 0 0.577109 1.69079 0 0.404624 1.69364 0 0.560992 1.69126 0 0.431143 1.69351 0 0.534305 1.69194 0 0.464662 1.69319 0 0.500673 1.69264 0 0.474065 2.00641 0 0.70203 2.00381 0 0.493443 2.00638 0 0.682574 2.00423 0 0.525575 2.00625 0 0.650344 2.00483 0 0.566151 2.00595 0 0.609702 2.00546 0 0.42221 1.81567 0 0.626102 1.81302 0 0.439524 1.81566 0 0.608685 1.81346 0 0.468241 1.81555 0 0.579839 1.8141 0 0.504519 1.81525 0 0.543474 1.81475 0 0.469671 1.99019 0 0.695592 1.9876 0 0.488874 1.99016 0 0.676309 1.98801 0 0.520716 1.99004 0 0.644367 1.98862 0 0.560927 1.98974 0 0.604089 1.98925 0 0.426661 1.83196 0 0.63261 1.82933 0 0.444151 1.83194 0 0.615019 1.82976 0 0.473161 1.83183 0 0.585885 1.83039 0 0.509807 1.83154 0 0.549154 1.83104 0 0.462384 1.9633 0 0.684915 1.96072 0 0.481296 1.96328 0 0.665919 1.96114 0 0.512658 1.96316 0 0.634454 1.96175 0 0.552264 1.96287 0 0.594778 1.96237 0 0.434019 1.85893 0 0.643375 1.85632 0 0.451802 1.85891 0 0.625496 1.85675 0 0.481295 1.8588 0 0.595883 1.85738 0 0.518549 1.85851 0 0.558548 1.85801 0 0.453174 1.92936 0 0.671423 1.92678 0 0.47172 1.92934 0 0.652791 1.9272 0 0.502475 1.92922 0 0.621928 1.92781 0 0.541317 1.92893 0 0.583013 1.92844 0 0.443275 1.89293 0 0.656926 1.89034 0 0.461427 1.89291 0 0.638683 1.89076 0 0.49153 1.8928 0 0.608467 1.89138 0 0.529551 1.89251 0 0.570369 1.89202 0 1.6584 1.93791 0 1.88077 1.90913 0 1.67747 1.93565 0 1.86196 1.91177 0 1.70901 1.93183 0 1.83072 1.91608 0 1.74873 1.92687 0 1.79121 1.92137 0 1.48179 1.7413 0 1.67967 1.70978 0 1.49879 1.73883 0 1.66296 1.71268 0 1.52689 1.73465 0 1.6352 1.7174 0 1.56226 1.72921 0 1.60007 1.72319 0 1.64342 1.92123 0 1.86372 1.89222 0 1.66231 1.91896 0 1.84508 1.89488 0 1.69357 1.9151 0 1.81414 1.89922 0 1.73291 1.9101 0 1.775 1.90456 0 1.49692 1.75813 0 1.69689 1.72685 0 1.51409 1.75568 0 1.68 1.72973 0 1.54249 1.75153 0 1.65194 1.73441 0 1.57823 1.74614 0 1.61644 1.74016 0 1.61858 1.89357 0 1.83543 1.86417 0 1.63717 1.89126 0 1.81708 1.86688 0 1.66794 1.88736 0 1.78663 1.87127 0 1.70668 1.88229 0 1.74811 1.87668 0 1.52194 1.78599 0 1.72539 1.7551 0 1.5394 1.78357 0 1.7082 1.75794 0 1.56829 1.77947 0 1.67965 1.76256 0 1.60465 1.77414 0 1.64352 1.76824 0 1.58718 1.85862 0 1.79968 1.82874 0 1.60541 1.85628 0 1.78171 1.83149 0 1.63557 1.85231 0 1.75188 1.83596 0 1.67353 1.84716 0 1.71413 1.84145 0 1.55345 1.82107 0 1.76127 1.79067 0 1.57129 1.81869 0 1.74371 1.79346 0 1.60079 1.81465 0 1.71454 1.79801 0 1.63792 1.80941 0 1.67763 1.8036 0 1.26613 1.76017 0 1.46623 1.73431 0 1.28328 1.75819 0 1.44929 1.73673 0 1.31165 1.75481 0 1.42117 1.74065 0 1.34738 1.75038 0 1.38562 1.74544 0 1.11264 1.56335 0 1.28819 1.5351 0 1.1277 1.56118 0 1.27335 1.53774 0 1.15262 1.55749 0 1.24871 1.54203 0 1.18399 1.55265 0 1.21753 1.54726 0 1.25315 1.74352 0 1.45117 1.71746 0 1.27011 1.74152 0 1.43441 1.7199 0 1.2982 1.73811 0 1.40659 1.72385 0 1.33356 1.73365 0 1.3714 1.72868 0 1.12581 1.58024 0 1.30348 1.55221 0 1.14106 1.57809 0 1.28846 1.55483 0 1.16627 1.57442 0 1.26352 1.55908 0 1.19802 1.56963 0 1.23196 1.56427 0 1.23159 1.71587 0 1.42618 1.68949 0 1.24827 1.71385 0 1.40971 1.69196 0 1.27587 1.7104 0 1.38237 1.69596 0 1.31062 1.70589 0 1.3478 1.70085 0 1.1476 1.60818 0 1.32876 1.58049 0 1.16314 1.60605 0 1.31344 1.58308 0 1.18885 1.60243 0 1.28801 1.58728 0 1.22122 1.5977 0 1.25583 1.59241 0 1.20433 1.68092 0 1.39456 1.65412 0 1.22064 1.67886 0 1.37847 1.65663 0 1.24763 1.67536 0 1.35175 1.66069 0 1.28161 1.67077 0 1.31795 1.66565 0 1.17502 1.64333 0 1.36056 1.61608 0 1.19093 1.64124 0 1.34487 1.61863 0 1.21726 1.63768 0 1.31881 1.62276 0 1.2504 1.63301 0 1.28585 1.62781 0 1.4239 1.96255 0 1.64914 1.93899 0 1.44318 1.96074 0 1.63005 1.9412 0 1.47509 1.95766 0 1.59837 1.94477 0 1.51529 1.95363 0 1.55832 1.94913 0 1.27243 1.76825 0 1.47354 1.74248 0 1.28966 1.76627 0 1.45651 1.7449 0 1.31818 1.76291 0 1.42825 1.7488 0 1.35409 1.7585 0 1.39251 1.75358 0 1.41105 1.94607 0 1.63425 1.92232 0 1.43015 1.94424 0 1.61533 1.92454 0 1.46177 1.94114 0 1.58394 1.92814 0 1.50161 1.93707 0 1.54425 1.93254 0 1.2854 1.78488 0 1.48857 1.75931 0 1.30281 1.78292 0 1.47137 1.7617 0 1.33161 1.77958 0 1.44282 1.76558 0 1.36789 1.7752 0 1.40671 1.77032 0 1.38974 1.91872 0 1.60954 1.89467 0 1.40855 1.91688 0 1.59091 1.89692 0 1.4397 1.91373 0 1.56 1.90057 0 1.47893 1.90962 0 1.52093 1.90502 0 1.30686 1.81241 0 1.51345 1.78715 0 1.32455 1.81047 0 1.49596 1.78951 0 1.35384 1.80717 0 1.46692 1.79334 0 1.39073 1.80285 0 1.4302 1.79802 0 1.36281 1.88418 0 1.57833 1.85974 0 1.38126 1.8823 0 1.56006 1.86203 0 1.4118 1.87911 0 1.52976 1.86573 0 1.45028 1.87493 0 1.49145 1.87026 0 1.33388 1.84707 0 1.54479 1.82221 0 1.35194 1.84516 0 1.52692 1.82454 0 1.38184 1.84191 0 1.49727 1.82831 0 1.41949 1.83766 0 1.45978 1.83291 0 1.24125 0.414326 0 1.24982 0.278378 0 1.24228 0.402703 0 1.24939 0.289905 0 1.24386 0.383455 0 1.24855 0.309034 0 1.24563 0.359194 0 1.24727 0.333215 0 1.12453 0.364497 0 1.13684 0.244794 0 1.12589 0.354268 0 1.13611 0.254946 0 1.12802 0.337325 0 1.13476 0.271793 0 1.13048 0.315964 0 1.13283 0.293088 0 1.23029 0.409855 0 1.23908 0.275356 0 1.23133 0.398357 0 1.23863 0.286761 0 1.23294 0.379314 0 1.23776 0.305686 0 1.23476 0.355311 0 1.23645 0.329609 0 1.13449 0.369006 0 1.14634 0.247823 0 1.13581 0.35865 0 1.14564 0.2581 0 1.13786 0.341496 0 1.14436 0.275154 0 1.14024 0.319871 0 1.14251 0.296712 0 1.21293 0.402724 0 1.22212 0.27054 0 1.21401 0.391424 0 1.22164 0.281748 0 1.21568 0.372709 0 1.22071 0.300348 0 1.21757 0.34912 0 1.21933 0.323859 0 1.15059 0.37618 0 1.16174 0.252647 0 1.15184 0.365622 0 1.1611 0.263122 0 1.1538 0.348135 0 1.15992 0.280507 0 1.15605 0.32609 0 1.15818 0.302482 0 1.19211 0.394051 0 1.20184 0.264686 0 1.19324 0.382992 0 1.20132 0.275655 0 1.19499 0.364677 0 1.20032 0.293859 0 1.19698 0.341591 0 1.19884 0.316869 0 1.17055 0.384881 0 1.18096 0.258505 0 1.17174 0.374079 0 1.18038 0.26922 0 1.17358 0.356188 0 1.17929 0.287004 0 1.1757 0.333635 0 1.17769 0.309484 0 1.09843 0.486356 0 1.11892 0.367183 0 1.10045 0.476235 0 1.11746 0.377351 0 1.10368 0.459444 0 1.11491 0.3942 0 1.10757 0.438229 0 1.1115 0.415453 0 0.929344 0.384017 0 0.961915 0.290576 0 0.932499 0.37611 0 0.959519 0.298574 0 0.937571 0.36298 0 0.955395 0.311819 0 0.943693 0.346368 0 0.949914 0.328507 0 1.08745 0.479912 0 1.10853 0.362345 0 1.08952 0.469929 0 1.10702 0.372377 0 1.09284 0.453366 0 1.1044 0.389001 0 1.09684 0.432439 0 1.10087 0.40997 0 0.94839 0.395732 0 0.979393 0.299325 0 0.951394 0.38757 0 0.977116 0.307573 0 0.956224 0.374018 0 0.973193 0.321233 0 0.962053 0.356875 0 0.967977 0.338448 0 1.0683 0.468573 0 1.09051 0.353837 0 1.07047 0.458833 0 1.08891 0.363631 0 1.07397 0.442674 0 1.08614 0.379858 0 1.07817 0.422253 0 1.08242 0.400324 0 0.977573 0.413636 0 1.00624 0.312705 0 0.980353 0.405084 0 1.00414 0.321334 0 0.984823 0.390888 0 1.00052 0.335628 0 0.990218 0.372937 0 0.995698 0.353645 0 1.04204 0.452839 0 1.06596 0.342044 0 1.04437 0.443439 0 1.06423 0.351505 0 1.04812 0.42784 0 1.06122 0.36718 0 1.05264 0.408124 0 1.05721 0.386948 0 1.01061 0.433804 0 1.03676 0.32779 0 1.01315 0.424815 0 1.03485 0.336848 0 1.01724 0.409896 0 1.03156 0.351854 0 1.02217 0.391035 0 1.02717 0.370773 0 1.22434 0.556433 0 1.24073 0.419968 0 1.22602 0.544824 0 1.23962 0.431596 0 1.2287 0.525575 0 1.23767 0.450869 0 1.23186 0.501269 0 1.23499 0.475191 0 1.10363 0.489391 0 1.12385 0.369462 0 1.10563 0.479204 0 1.12241 0.379694 0 1.10882 0.462306 0 1.11991 0.396648 0 1.11266 0.440956 0 1.11653 0.418035 0 1.21315 0.550435 0 1.22976 0.415437 0 1.21485 0.538952 0 1.22863 0.426941 0 1.21755 0.519911 0 1.22664 0.446008 0 1.22075 0.495867 0 1.22393 0.470069 0 1.11412 0.495475 0 1.13383 0.374033 0 1.11607 0.485158 0 1.13243 0.384392 0 1.1192 0.468044 0 1.13 0.401558 0 1.12294 0.446424 0 1.12672 0.423214 0 1.1954 0.540861 0 1.21238 0.408211 0 1.19713 0.52958 0 1.21122 0.419516 0 1.19988 0.510872 0 1.20918 0.438253 0 1.20314 0.487248 0 1.20639 0.461897 0 1.13099 0.505148 0 1.14996 0.381306 0 1.13288 0.494625 0 1.14862 0.391867 0 1.1359 0.477169 0 1.14629 0.40937 0 1.13951 0.455119 0 1.14314 0.431451 0 1.17403 0.529205 0 1.19154 0.39942 0 1.17579 0.51817 0 1.19033 0.410483 0 1.17861 0.499869 0 1.18821 0.428818 0 1.18197 0.476757 0 1.18532 0.451954 0 1.15176 0.516868 0 1.16995 0.390125 0 1.15358 0.506095 0 1.16868 0.400931 0 1.15649 0.488226 0 1.16646 0.41884 0 1.15997 0.465658 0 1.16345 0.441436 0 1.6029 0.557776 0 1.60776 0.375726 0 1.60358 0.542225 0 1.60761 0.391182 0 1.60461 0.516469 0 1.60726 0.416821 0 1.6057 0.483997 0 1.60663 0.449213 0 1.41331 0.483109 0 1.41948 0.32497 0 1.41412 0.469593 0 1.41924 0.338386 0 1.41535 0.447208 0 1.41872 0.360644 0 1.41669 0.418992 0 1.41787 0.388775 0 1.58639 0.551293 0 1.59133 0.371313 0 1.58709 0.535919 0 1.59118 0.386592 0 1.58812 0.510454 0 1.59082 0.411938 0 1.58923 0.478351 0 1.59017 0.443962 0 1.42878 0.489228 0 1.43481 0.329124 0 1.42958 0.475544 0 1.43458 0.342706 0 1.43079 0.452882 0 1.43408 0.365243 0 1.4321 0.424316 0 1.43325 0.393723 0 1.55906 0.540555 0 1.56415 0.364006 0 1.55977 0.525472 0 1.56399 0.378992 0 1.56083 0.500491 0 1.56362 0.403853 0 1.56197 0.468998 0 1.56294 0.435264 0 1.45483 0.499513 0 1.46063 0.336107 0 1.4556 0.485548 0 1.46042 0.349972 0 1.45678 0.46242 0 1.45995 0.372974 0 1.45805 0.433267 0 1.45915 0.402043 0 1.52474 0.527055 0 1.53003 0.354825 0 1.52546 0.51234 0 1.52985 0.369442 0 1.52656 0.487967 0 1.52945 0.393692 0 1.52773 0.457243 0 1.52874 0.424334 0 1.48829 0.512706 0 1.49383 0.345071 0 1.48904 0.498381 0 1.49364 0.359296 0 1.49017 0.474657 0 1.4932 0.382896 0 1.4914 0.44475 0 1.49245 0.412719 0 1.39148 0.64452 0 1.40545 0.486689 0 1.39296 0.631084 0 1.40455 0.500131 0 1.3953 0.60881 0 1.40294 0.522413 0 1.39803 0.580693 0 1.4007 0.550534 0 1.22993 0.559418 0 1.24621 0.422224 0 1.2316 0.547747 0 1.24511 0.433914 0 1.23426 0.528394 0 1.24318 0.453289 0 1.2374 0.503958 0 1.24052 0.47774 0 1.37614 0.636501 0 1.39028 0.480604 0 1.37763 0.62323 0 1.38937 0.493881 0 1.38 0.601229 0 1.38774 0.515891 0 1.38276 0.573458 0 1.38546 0.543668 0 1.24176 0.565729 0 1.25783 0.426994 0 1.24342 0.553926 0 1.25675 0.438814 0 1.24605 0.534354 0 1.25485 0.458406 0 1.24916 0.509643 0 1.25223 0.483131 0 1.35123 0.623464 0 1.36568 0.470715 0 1.35275 0.610462 0 1.36474 0.483725 0 1.35516 0.588906 0 1.36306 0.50529 0 1.35798 0.561696 0 1.36074 0.532507 0 1.2623 0.576637 0 1.27802 0.435244 0 1.26393 0.564606 0 1.27697 0.44729 0 1.26651 0.544658 0 1.27512 0.467256 0 1.26956 0.519473 0 1.27256 0.492453 0 1.32084 0.60752 0 1.33569 0.458629 0 1.3224 0.594848 0 1.33471 0.471311 0 1.32486 0.573838 0 1.33298 0.492332 0 1.32775 0.547315 0 1.33059 0.518863 0 1.28973 0.591142 0 1.30502 0.446223 0 1.29133 0.57881 0 1.30401 0.458567 0 1.29385 0.558362 0 1.30222 0.47903 0 1.29682 0.532547 0 1.29974 0.504854 0 1.59038 0.747972 0 1.60255 0.565325 0 1.59169 0.732421 0 1.60179 0.580882 0 1.59376 0.706643 0 1.60041 0.606667 0 1.59615 0.674107 0 1.59848 0.639208 0 1.39901 0.648449 0 1.41289 0.489671 0 1.40048 0.634933 0 1.412 0.503194 0 1.4028 0.612525 0 1.4104 0.525609 0 1.40552 0.58424 0 1.40817 0.553899 0 1.57375 0.739342 0 1.58604 0.558757 0 1.57507 0.723966 0 1.58527 0.574138 0 1.57716 0.698479 0 1.58388 0.599631 0 1.57958 0.66631 0 1.58192 0.631805 0 1.41466 0.656616 0 1.42837 0.495871 0 1.41612 0.642932 0 1.42749 0.509561 0 1.41842 0.620246 0 1.42592 0.532254 0 1.4211 0.59161 0 1.42372 0.560894 0 1.5462 0.725042 0 1.5587 0.547877 0 1.54755 0.709958 0 1.55792 0.562966 0 1.54966 0.684953 0 1.5565 0.587977 0 1.55212 0.653393 0 1.55451 0.619541 0 1.44099 0.670339 0 1.45443 0.506293 0 1.44242 0.656373 0 1.45357 0.520264 0 1.44468 0.633221 0 1.45203 0.543423 0 1.44732 0.603997 0 1.44988 0.572651 0 1.51157 0.707058 0 1.52436 0.534199 0 1.51295 0.692341 0 1.52356 0.548922 0 1.51511 0.667944 0 1.5221 0.573324 0 1.51762 0.637151 0 1.52007 0.604121 0 1.47479 0.687934 0 1.4879 0.519661 0 1.47619 0.673607 0 1.48707 0.533992 0 1.4784 0.649858 0 1.48558 0.557747 0 1.48098 0.619881 0 1.48348 0.587728 0 1.60534 0.180677 0 1.59628 0.00362172 0 1.60481 0.165461 0 1.5973 0.0185629 0 1.60385 0.140296 0 1.59889 0.0433841 0 1.60244 0.108639 0 1.60071 0.0748097 0 1.41809 0.15595 0 1.40984 0.00311879 0 1.41764 0.14279 0 1.41079 0.0159886 0 1.41679 0.121036 0 1.41227 0.0373806 0 1.41553 0.0936869 0 1.41395 0.064485 0 1.58896 0.178524 0 1.57993 0.00357786 0 1.58844 0.163486 0 1.58094 0.0183384 0 1.58748 0.138619 0 1.58253 0.0428607 0 1.58608 0.107336 0 1.58435 0.0739098 0 1.43329 0.15797 0 1.42491 0.0031598 0 1.43283 0.144642 0 1.42587 0.0161985 0 1.43196 0.122609 0 1.42737 0.0378703 0 1.43068 0.0949074 0 1.42908 0.0653276 0 1.56188 0.17496 0 1.55289 0.00350527 0 1.56136 0.160218 0 1.5539 0.0179669 0 1.56041 0.135842 0 1.55548 0.0419945 0 1.55902 0.10518 0 1.5573 0.0724205 0 1.45892 0.161368 0 1.45035 0.00322883 0 1.45844 0.147757 0 1.45133 0.0165519 0 1.45755 0.125255 0 1.45285 0.0386945 0 1.45623 0.096961 0 1.45459 0.0667453 0 1.5279 0.170484 0 1.519 0.00341417 0 1.5274 0.156114 0 1.52001 0.0175006 0 1.52646 0.132355 0 1.52158 0.0409072 0 1.52508 0.102472 0 1.52338 0.0705508 0 1.4919 0.165732 0 1.48314 0.00331752 0 1.49141 0.151757 0 1.48414 0.0170059 0 1.49049 0.128653 0 1.48569 0.0397534 0 1.48914 0.0995989 0 1.48747 0.0685666 0 1.41222 0.316505 0 1.41099 0.161336 0 1.41239 0.303192 0 1.41137 0.174449 0 1.41256 0.281164 0 1.41188 0.196226 0 1.41256 0.253435 0 1.41233 0.223786 0 1.25537 0.274262 0 1.25614 0.139577 0 1.25571 0.262695 0 1.25633 0.150945 0 1.25616 0.243559 0 1.25655 0.169831 0 1.25651 0.219479 0 1.25664 0.193742 0 1.39722 0.312511 0 1.39612 0.159275 0 1.3974 0.299362 0 1.39649 0.172223 0 1.39759 0.277607 0 1.39698 0.193728 0 1.39762 0.250223 0 1.3974 0.220942 0 1.26675 0.277382 0 1.26732 0.141181 0 1.26708 0.265685 0 1.26753 0.152678 0 1.26749 0.246335 0 1.26778 0.171778 0 1.26781 0.221985 0 1.26791 0.195959 0 1.3729 0.306023 0 1.37204 0.155929 0 1.37311 0.293141 0 1.37239 0.168609 0 1.37333 0.271829 0 1.37284 0.18967 0 1.3734 0.245005 0 1.37323 0.216325 0 1.28656 0.28278 0 1.2868 0.143958 0 1.28686 0.270859 0 1.28704 0.155678 0 1.28723 0.251139 0 1.28734 0.175148 0 1.28749 0.226322 0 1.28753 0.199795 0 1.34331 0.298097 0 1.34278 0.151845 0 1.34354 0.285543 0 1.34309 0.164197 0 1.34381 0.264773 0 1.3435 0.184715 0 1.34394 0.238632 0 1.34383 0.210686 0 1.31311 0.289968 0 1.31295 0.147658 0 1.31337 0.27775 0 1.31323 0.159675 0 1.31369 0.257537 0 1.31359 0.179637 0 1.31389 0.232098 0 1.31385 0.204905 0 1.60781 0.368228 0 1.60557 0.188071 0 1.60788 0.352792 0 1.60602 0.203319 0 1.60789 0.327244 0 1.60666 0.228632 0 1.60771 0.29507 0 1.60728 0.260647 0 1.41958 0.318464 0 1.4183 0.162346 0 1.41975 0.305069 0 1.41867 0.17554 0 1.4199 0.282908 0 1.41919 0.197452 0 1.4199 0.25501 0 1.41965 0.22518 0 1.59139 0.363902 0 1.5892 0.185831 0 1.59147 0.348642 0 1.58964 0.2009 0 1.59148 0.323388 0 1.59028 0.225918 0 1.59131 0.291585 0 1.59089 0.257561 0 1.4349 0.322536 0 1.4335 0.164448 0 1.43506 0.308974 0 1.43389 0.17781 0 1.4352 0.286534 0 1.43442 0.2 0 1.43517 0.258286 0 1.4349 0.228079 0 1.56421 0.356737 0 1.56211 0.182123 0 1.5643 0.341771 0 1.56255 0.196897 0 1.56433 0.317003 0 1.56318 0.221425 0 1.56418 0.285815 0 1.56377 0.252451 0 1.46072 0.329383 0 1.45913 0.167983 0 1.46085 0.315539 0 1.45953 0.181628 0 1.46097 0.292633 0 1.46009 0.204286 0 1.46091 0.263795 0 1.4606 0.232956 0 1.5301 0.347734 0 1.52813 0.177466 0 1.5302 0.333137 0 1.52856 0.191869 0 1.53025 0.308982 0 1.52917 0.215782 0 1.53013 0.278566 0 1.52975 0.246033 0 1.49391 0.338171 0 1.49212 0.172523 0 1.49403 0.323966 0 1.49254 0.18653 0 1.49411 0.300461 0 1.49313 0.20979 0 1.49402 0.270868 0 1.49367 0.239217 0 0.674411 1.21017 0 0.803941 1.18327 0 0.685555 1.20818 0 0.793019 1.18588 0 0.703979 1.20477 0 0.774873 1.19007 0 0.727147 1.20025 0 0.751893 1.19512 0 0.583915 1.08842 0 0.695509 1.05766 0 0.593549 1.08616 0 0.686137 1.06069 0 0.609465 1.0823 0 0.670549 1.06554 0 0.629457 1.07717 0 0.65078 1.07133 0 0.666393 1.19899 0 0.794363 1.17188 0 0.677406 1.19698 0 0.783576 1.17452 0 0.695612 1.19355 0 0.765652 1.17875 0 0.718504 1.189 0 0.742952 1.18384 0 0.592096 1.09922 0 0.705353 1.06901 0 0.601871 1.09701 0 0.695838 1.07199 0 0.618021 1.09322 0 0.680014 1.07675 0 0.638308 1.08818 0 0.659948 1.08244 0 0.653527 1.18126 0 0.778988 1.15379 0 0.664329 1.17924 0 0.768418 1.15648 0 0.682185 1.17577 0 0.750853 1.16078 0 0.704633 1.17116 0 0.728602 1.16594 0 0.605157 1.11647 0 0.721049 1.08703 0 0.615155 1.11431 0 0.711307 1.08994 0 0.631674 1.11062 0 0.695108 1.09458 0 0.652428 1.10571 0 0.674571 1.10012 0 0.637771 1.15988 0 0.760143 1.13191 0 0.648315 1.15783 0 0.749841 1.13466 0 0.665739 1.15431 0 0.732717 1.13905 0 0.68764 1.14963 0 0.71102 1.14431 0 0.621039 1.13751 0 0.740104 1.10887 0 0.631305 1.13541 0 0.730088 1.11169 0 0.648267 1.13181 0 0.713436 1.1162 0 0.669583 1.12703 0 0.692331 1.12159 0 0.46134 1.10713 0 0.575194 1.08412 0 0.471135 1.10535 0 0.565598 1.08631 0 0.487329 1.10235 0 0.549651 1.08983 0 0.507696 1.09845 0 0.529451 1.09409 0 0.357836 0.939668 0 0.443119 0.90353 0 0.365169 0.936911 0 0.435934 0.906933 0 0.377299 0.932211 0 0.42399 0.912438 0 0.392557 0.926048 0 0.408857 0.919146 0 0.454563 1.09633 0 0.56665 1.07274 0 0.464205 1.09451 0 0.557204 1.07498 0 0.480149 1.09143 0 0.541505 1.07859 0 0.500201 1.08742 0 0.521619 1.08295 0 0.36935 0.958638 0 0.457934 0.924281 0 0.376968 0.956009 0 0.450471 0.927517 0 0.389567 0.951534 0 0.438065 0.932749 0 0.405416 0.945675 0 0.422347 0.93912 0 0.442741 1.07748 0 0.551702 1.05274 0 0.452115 1.07557 0 0.54252 1.05509 0 0.467615 1.07233 0 0.52726 1.05887 0 0.487108 1.06813 0 0.507929 1.06344 0 0.387068 0.987664 0 0.480688 0.955936 0 0.395121 0.985225 0 0.472801 0.958927 0 0.408437 0.981084 0 0.459691 0.963756 0 0.425188 0.975674 0 0.44308 0.969631 0 0.42655 1.05156 0 0.531142 1.02504 0 0.435548 1.04951 0 0.52233 1.02755 0 0.450427 1.04604 0 0.507682 1.03159 0 0.469139 1.04153 0 0.489126 1.03649 0 0.407245 1.02045 0 0.506521 0.991516 0 0.415785 1.01822 0 0.498157 0.994248 0 0.429907 1.01444 0 0.484255 0.998653 0 0.447669 1.00951 0 0.466641 1.004 0 0.536729 1.2307 0 0.668995 1.21111 0 0.548088 1.22925 0 0.657823 1.21303 0 0.566876 1.22678 0 0.639268 1.21609 0 0.590517 1.22349 0 0.615786 1.21977 0 0.464547 1.11224 0 0.57923 1.08949 0 0.474413 1.11048 0 0.569564 1.09166 0 0.490725 1.10752 0 0.5535 1.09514 0 0.51124 1.10366 0 0.533153 1.09935 0 0.530286 1.21968 0 0.66104 1.19994 0 0.541519 1.21822 0 0.649998 1.20186 0 0.560095 1.21571 0 0.631659 1.20495 0 0.583467 1.2124 0 0.608447 1.20865 0 0.471005 1.12254 0 0.587343 1.10027 0 0.481013 1.12082 0 0.577536 1.1024 0 0.497559 1.11793 0 0.561239 1.10582 0 0.518369 1.11416 0 0.540598 1.10994 0 0.519958 1.20223 0 0.648276 1.18222 0 0.530985 1.20073 0 0.637444 1.18416 0 0.54922 1.19819 0 0.619451 1.18728 0 0.57216 1.19482 0 0.596675 1.19102 0 0.481347 1.13908 0 0.600297 1.11749 0 0.491578 1.13742 0 0.590267 1.11956 0 0.508494 1.13463 0 0.573602 1.12288 0 0.529769 1.13098 0 0.552496 1.12688 0 0.507336 1.18125 0 0.632646 1.16086 0 0.518108 1.17972 0 0.622072 1.16283 0 0.535921 1.1771 0 0.604507 1.16599 0 0.558327 1.17367 0 0.582268 1.1698 0 0.493976 1.15943 0 0.616049 1.1385 0 0.504473 1.15784 0 0.605753 1.14052 0 0.52183 1.15514 0 0.588646 1.14375 0 0.543661 1.15161 0 0.566984 1.14764 0 0.921959 1.5782 0 1.09896 1.55618 0 0.937108 1.57656 0 1.08396 1.5583 0 0.962185 1.57375 0 1.05907 1.5617 0 0.993779 1.57003 0 1.0276 1.56582 0 0.794496 1.38554 0 0.947179 1.36129 0 0.807589 1.38374 0 0.934263 1.36361 0 0.829253 1.38063 0 0.912821 1.36736 0 0.856527 1.37653 0 0.885697 1.3719 0 0.910937 1.56146 0 1.08584 1.53927 0 0.925909 1.55981 0 1.07102 1.5414 0 0.950692 1.55697 0 1.04642 1.54483 0 0.981913 1.55322 0 1.01533 1.54898 0 0.805006 1.4013 0 0.959703 1.37724 0 0.81827 1.3995 0 0.946614 1.37955 0 0.840216 1.39643 0 0.924886 1.38326 0 0.867847 1.39236 0 0.897402 1.38776 0 0.89267 1.53373 0 1.0641 1.51123 0 0.907347 1.53205 0 1.04958 1.51339 0 0.931642 1.52918 0 1.02547 1.51687 0 0.962245 1.52538 0 0.994998 1.52108 0 0.822638 1.4278 0 0.980708 1.40408 0 0.836186 1.42603 0 0.96733 1.40635 0 0.858606 1.423 0 0.945122 1.41001 0 0.886836 1.41898 0 0.917035 1.41445 0 0.86968 1.49887 0 1.03673 1.47598 0 0.883987 1.49716 0 1.02258 1.47818 0 0.907666 1.49424 0 0.999099 1.48171 0 0.937492 1.49037 0 0.969407 1.486 0 0.845199 1.46183 0 1.00758 1.43852 0 0.859112 1.46009 0 0.993831 1.44075 0 0.882136 1.45711 0 0.971012 1.44435 0 0.911131 1.45317 0 0.942155 1.44871 0 0.62931 1.39639 0 0.783112 1.37884 0 0.642477 1.39514 0 0.770079 1.38058 0 0.664272 1.39297 0 0.748451 1.38337 0 0.691726 1.39006 0 0.72111 1.38671 0 0.539925 1.2362 0 0.672941 1.2167 0 0.551348 1.23477 0 0.661704 1.2186 0 0.57024 1.2323 0 0.643042 1.22166 0 0.594014 1.22903 0 0.619426 1.22532 0 0.620979 1.38112 0 0.772852 1.3634 0 0.633984 1.37986 0 0.759985 1.36517 0 0.655509 1.37767 0 0.738632 1.36798 0 0.682622 1.37473 0 0.711637 1.37134 0 0.54666 1.24788 0 0.681253 1.22853 0 0.558216 1.24646 0 0.66988 1.23043 0 0.577329 1.24402 0 0.650994 1.23346 0 0.601382 1.24078 0 0.627095 1.2371 0 0.607405 1.35636 0 0.756132 1.33836 0 0.620146 1.35507 0 0.743538 1.34015 0 0.641233 1.35284 0 0.722634 1.343 0 0.667788 1.34985 0 0.696202 1.34641 0 0.558245 1.26817 0 0.695545 1.24909 0 0.570028 1.26678 0 0.683938 1.25097 0 0.58952 1.26439 0 0.664666 1.25397 0 0.614052 1.2612 0 0.640282 1.25756 0 0.590748 1.32618 0 0.735611 1.30783 0 0.603165 1.32486 0 0.723351 1.30964 0 0.623713 1.32258 0 0.702999 1.31254 0 0.649584 1.31952 0 0.67726 1.31602 0 0.573557 1.29533 0 0.714425 1.2766 0 0.58564 1.29398 0 0.70251 1.27844 0 0.60563 1.29163 0 0.682729 1.2814 0 0.630794 1.28851 0 0.657706 1.28494 0 0.73609 1.59463 0 0.914602 1.57898 0 0.751333 1.59354 0 0.899438 1.58055 0 0.776581 1.59162 0 0.874288 1.58306 0 0.808414 1.58904 0 0.84252 1.58604 0 0.633389 1.40388 0 0.788135 1.38641 0 0.646635 1.40264 0 0.77502 1.38814 0 0.668561 1.40048 0 0.753257 1.39092 0 0.696183 1.39758 0 0.725747 1.39424 0 0.727213 1.57804 0 0.903667 1.56224 0 0.742282 1.57693 0 0.888679 1.56383 0 0.767242 1.575 0 0.863822 1.56636 0 0.79871 1.57239 0 0.832423 1.56937 0 0.641858 1.41946 0 0.798563 1.40215 0 0.655268 1.41823 0 0.785279 1.40387 0 0.677468 1.4161 0 0.763237 1.40663 0 0.705436 1.41322 0 0.735375 1.40992 0 0.712497 1.55056 0 0.885542 1.53452 0 0.727279 1.54943 0 0.870848 1.53613 0 0.751762 1.54747 0 0.846476 1.5387 0 0.782625 1.54482 0 0.815687 1.54176 0 0.656066 1.44567 0 0.816057 1.42864 0 0.669751 1.44447 0 0.802489 1.43034 0 0.69241 1.44237 0 0.779978 1.43305 0 0.72096 1.43955 0 0.751527 1.4363 0 0.693973 1.51603 0 0.862731 1.49968 0 0.708395 1.51488 0 0.848407 1.50132 0 0.732278 1.51287 0 0.824645 1.50393 0 0.762382 1.51017 0 0.794623 1.50705 0 0.674246 1.47935 0 0.838442 1.46266 0 0.688285 1.47818 0 0.824511 1.46432 0 0.71153 1.47613 0 0.8014 1.46699 0 0.740825 1.47336 0 0.772195 1.47017 0 1.28791 1.52549 0 1.45885 1.49089 0 1.30262 1.52277 0 1.44445 1.49407 0 1.32695 1.51818 0 1.42051 1.49924 0 1.35753 1.51221 0 1.39019 1.5056 0 1.10947 1.32752 0 1.25547 1.28959 0 1.12207 1.32454 0 1.2432 1.29307 0 1.14289 1.31949 0 1.22281 1.29873 0 1.16904 1.31294 0 1.19694 1.3057 0 1.2725 1.50834 0 1.4413 1.47349 0 1.28703 1.5056 0 1.42708 1.47669 0 1.31105 1.50097 0 1.40345 1.4819 0 1.34126 1.49496 0 1.37351 1.4883 0 1.12421 1.34378 0 1.27228 1.30619 0 1.13699 1.34082 0 1.25984 1.30963 0 1.1581 1.33582 0 1.23915 1.31524 0 1.18462 1.32933 0 1.21291 1.32215 0 1.24695 1.47991 0 1.41219 1.44464 0 1.26118 1.47714 0 1.39828 1.44788 0 1.28471 1.47245 0 1.37515 1.45315 0 1.31428 1.46637 0 1.34585 1.45963 0 1.14892 1.37109 0 1.30046 1.33403 0 1.16199 1.36818 0 1.28772 1.33743 0 1.18359 1.36325 0 1.26654 1.34296 0 1.21072 1.35685 0 1.23968 1.34977 0 1.21479 1.44415 0 1.37554 1.40833 0 1.22864 1.44133 0 1.36201 1.41162 0 1.25153 1.43657 0 1.33952 1.41697 0 1.2803 1.43039 0 1.31102 1.42355 0 1.18052 1.4061 0 1.33649 1.36966 0 1.19396 1.40324 0 1.32337 1.373 0 1.21618 1.39839 0 1.30156 1.37845 0 1.24411 1.3921 0 1.27391 1.38514 0 0.947369 1.35246 0 1.09629 1.32114 0 0.960174 1.35006 0 1.08373 1.32406 0 0.981348 1.34596 0 1.06286 1.32881 0 1.00798 1.34059 0 1.03644 1.33461 0 0.814016 1.18766 0 0.941021 1.15212 0 0.824972 1.18497 0 0.930348 1.15547 0 0.843076 1.18036 0 0.912599 1.16089 0 0.865822 1.17429 0 0.890092 1.1675 0 0.934961 1.33681 0 1.08186 1.30519 0 0.947595 1.33438 0 1.06948 1.30815 0 0.968486 1.33024 0 1.0489 1.31294 0 0.994763 1.32483 0 1.02283 1.31879 0 0.824089 1.19972 0 0.952774 1.16462 0 0.835186 1.19706 0 0.941957 1.16792 0 0.853524 1.1925 0 0.923967 1.17327 0 0.876569 1.18651 0 0.901159 1.17979 0 0.914739 1.3114 0 1.05835 1.27927 0 0.927094 1.30893 0 1.04624 1.28227 0 0.947523 1.30473 0 1.02613 1.28714 0 0.973214 1.29923 0 1.00066 1.29309 0 0.841403 1.22067 0 0.972962 1.18625 0 0.852741 1.21804 0 0.961897 1.18948 0 0.871481 1.21356 0 0.943498 1.19471 0 0.895035 1.20768 0 0.920175 1.2011 0 0.88991 1.28039 0 1.02946 1.24757 0 0.901922 1.27787 0 1.0177 1.25064 0 0.921781 1.27359 0 0.998169 1.25562 0 0.946752 1.26797 0 0.973418 1.2617 0 0.864265 1.24865 0 0.999601 1.21504 0 0.875922 1.24608 0 0.988211 1.21819 0 0.895191 1.2417 0 0.969274 1.22329 0 0.919414 1.23595 0 0.945275 1.22952 0 1.10623 1.55514 0 1.28076 1.52679 0 1.12121 1.55296 0 1.26601 1.52944 0 1.14599 1.54926 0 1.24152 1.53374 0 1.17717 1.5444 0 1.21052 1.53899 0 0.953442 1.36014 0 1.10335 1.32895 0 0.96633 1.35774 0 1.0907 1.33187 0 0.987643 1.35366 0 1.0697 1.33659 0 1.01445 1.34832 0 1.0431 1.34236 0 1.09303 1.53822 0 1.26544 1.50965 0 1.10783 1.53602 0 1.25087 1.51232 0 1.1323 1.53228 0 1.22667 1.51665 0 1.16311 1.5274 0 1.19606 1.52194 0 0.96605 1.37611 0 1.118 1.3452 0 0.979111 1.37373 0 1.10518 1.34808 0 1.00071 1.36968 0 1.08389 1.35276 0 1.02788 1.36439 0 1.05692 1.35849 0 1.07114 1.51017 0 1.24004 1.48124 0 1.08564 1.50795 0 1.22577 1.48394 0 1.10962 1.50416 0 1.20207 1.48833 0 1.13981 1.49921 0 1.17208 1.49368 0 0.987195 1.40296 0 1.14257 1.37249 0 1.00055 1.40061 0 1.12946 1.37533 0 1.02263 1.39662 0 1.10767 1.37995 0 1.05041 1.39141 0 1.0801 1.38559 0 1.04359 1.4749 0 1.20806 1.4455 0 1.05771 1.47264 0 1.19417 1.44824 0 1.08107 1.46879 0 1.1711 1.4527 0 1.11047 1.46376 0 1.1419 1.45814 0 1.01425 1.43741 0 1.17398 1.40748 0 1.02797 1.43511 0 1.1605 1.41027 0 1.05066 1.43119 0 1.1381 1.41481 0 1.07922 1.42607 0 1.10974 1.42035 0 1.12022 0.969535 0 1.16339 0.841153 0 1.12425 0.958798 0 1.16008 0.852275 0 1.1308 0.940917 0 1.15445 0.870635 0 1.13881 0.918206 0 1.14706 0.893671 0 0.982369 0.847826 0 1.03343 0.737563 0 0.987173 0.838659 0 1.02956 0.747167 0 0.994959 0.82337 0 1.02294 0.763002 0 1.00446 0.803908 0 1.01423 0.782833 0 1.10795 0.958733 0 1.15168 0.831936 0 1.11205 0.948133 0 1.14834 0.842925 0 1.11869 0.930479 0 1.14264 0.861064 0 1.1268 0.908052 0 1.13516 0.88382 0 0.994919 0.858915 0 1.04519 0.746996 0 0.999651 0.849605 0 1.04139 0.756739 0 1.00732 0.834079 0 1.03487 0.772805 0 1.01668 0.81432 0 1.0263 0.792929 0 1.08835 0.941445 0 1.13305 0.8172 0 1.09254 0.931066 0 1.12964 0.827975 0 1.09933 0.913777 0 1.12382 0.845758 0 1.10763 0.891807 0 1.11618 0.868063 0 1.01487 0.876547 0 1.06388 0.76199 0 1.01948 0.867008 0 1.06017 0.771954 0 1.02696 0.851105 0 1.05382 0.788388 0 1.03608 0.830873 0 1.04546 0.808979 0 1.06441 0.920322 0 1.11042 0.799217 0 1.06874 0.910215 0 1.10692 0.809729 0 1.07574 0.893375 0 1.10095 0.827075 0 1.08429 0.871969 0 1.09309 0.848824 0 1.03902 0.897893 0 1.08654 0.78014 0 1.04349 0.888077 0 1.08293 0.790372 0 1.05074 0.871717 0 1.07677 0.807251 0 1.05958 0.850912 0 1.06867 0.828407 0 0.911189 0.949447 0 0.973732 0.846694 0 0.91686 0.94098 0 0.968777 0.85572 0 0.926129 0.926827 0 0.960402 0.870572 0 0.937583 0.908755 0 0.949552 0.889116 0 0.690881 0.735014 0 0.762335 0.659679 0 0.697269 0.728889 0 0.75656 0.666376 0 0.707735 0.718613 0 0.746859 0.677365 0 0.720727 0.70543 0 0.734385 0.69103 0 0.896982 0.935831 0 0.960403 0.83488 0 0.902729 0.92752 0 0.955375 0.843754 0 0.912123 0.913623 0 0.946878 0.858354 0 0.923735 0.895874 0 0.935873 0.876579 0 0.715642 0.759409 0 0.786519 0.681038 0 0.72199 0.753026 0 0.780807 0.687995 0 0.732389 0.742324 0 0.771203 0.699415 0 0.745289 0.728602 0 0.75884 0.713622 0 0.872104 0.911911 0 0.936955 0.814103 0 0.877973 0.903871 0 0.931806 0.822713 0 0.887569 0.890422 0 0.923107 0.836872 0 0.899437 0.873234 0 0.911847 0.85454 0 0.753655 0.796743 0 0.823477 0.713694 0 0.759926 0.789964 0 0.817874 0.721052 0 0.770195 0.778604 0 0.808439 0.733133 0 0.782922 0.764049 0 0.796276 0.748175 0 0.837848 0.878813 0 0.904437 0.785306 0 0.843862 0.871142 0 0.899136 0.793553 0 0.853701 0.858303 0 0.890188 0.807108 0 0.865875 0.841885 0 0.878617 0.824013 0 0.796781 0.8389 0 0.865118 0.750513 0 0.802937 0.831666 0 0.859658 0.758325 0 0.813012 0.819553 0 0.850452 0.77116 0 0.825489 0.804048 0 0.838563 0.787154 0 1.06597 1.09719 0 1.11823 0.974732 0 1.07073 1.08702 0 1.1141 0.985407 0 1.07849 1.07004 0 1.10712 1.003 0 1.08807 1.04844 0 1.09807 1.02503 0 0.917896 0.955864 0 0.980009 0.852259 0 0.923529 0.947324 0 0.97509 0.861357 0 0.932736 0.933049 0 0.966774 0.876327 0 0.944113 0.914824 0 0.956 0.895023 0 1.05295 1.08468 0 1.10594 0.963863 0 1.05777 1.07465 0 1.10175 0.974402 0 1.06565 1.05791 0 1.09467 0.991769 0 1.07536 1.0366 0 1.08549 1.01351 0 0.931368 0.968737 0 0.992594 0.863418 0 0.936924 0.960048 0 0.987748 0.872659 0 0.946003 0.945529 0 0.979555 0.887869 0 0.95722 0.926997 0 0.968937 0.906868 0 1.03201 1.06463 0 1.08629 0.946468 0 1.03695 1.05483 0 1.082 0.956784 0 1.04501 1.03847 0 1.07474 0.973782 0 1.05496 1.01763 0 1.06534 0.995052 0 0.95285 0.98922 0 1.0126 0.88116 0 0.958277 0.980294 0 1.00788 0.890631 0 0.967142 0.965382 0 0.999884 0.906223 0 0.978092 0.946359 0 0.989526 0.925707 0 1.00631 1.0401 0 1.06229 0.925212 0 1.0114 1.03058 0 1.05786 0.935254 0 1.01971 1.01469 0 1.05038 0.951796 0 1.02997 0.994445 0 1.04068 0.972488 0 0.978918 1.01403 0 1.03683 0.902642 0 0.984181 1.00482 0 1.03225 0.912391 0 0.992777 0.98943 0 1.02451 0.928447 0 1.00339 0.969808 0 1.01447 0.94852 0 1.50645 1.30817 0 1.54086 1.13199 0 1.50965 1.29333 0 1.5382 1.14715 0 1.51485 1.26866 0 1.53368 1.17222 0 1.52121 1.23741 0 1.52779 1.20374 0 1.30662 1.13319 0 1.34436 0.981434 0 1.31013 1.12044 0 1.34145 0.994528 0 1.31583 1.09924 0 1.33649 1.01616 0 1.3228 1.07234 0 1.33001 1.04335 0 1.48916 1.29304 0 1.52382 1.11896 0 1.49239 1.27838 0 1.52115 1.13394 0 1.49762 1.254 0 1.5166 1.15872 0 1.50403 1.22313 0 1.51065 1.18986 0 1.32307 1.1476 0 1.36048 0.993821 0 1.32655 1.13468 0 1.35759 1.00709 0 1.3322 1.11319 0 1.35268 1.02901 0 1.33911 1.08593 0 1.34626 1.05655 0 1.4605 1.26795 0 1.49559 1.09736 0 1.46377 1.25359 0 1.49288 1.11205 0 1.46907 1.22971 0 1.48827 1.13633 0 1.47555 1.19946 0 1.48226 1.16686 0 1.35068 1.17179 0 1.38758 1.01462 0 1.35411 1.15858 0 1.38472 1.02817 0 1.35968 1.1366 0 1.37988 1.05057 0 1.3665 1.10874 0 1.37355 1.07871 0 1.42443 1.23638 0 1.46008 1.07018 0 1.42775 1.22239 0 1.45733 1.0845 0 1.43313 1.19913 0 1.45265 1.10816 0 1.43972 1.16967 0 1.44653 1.13791 0 1.38604 1.20276 0 1.42232 1.04126 0 1.38941 1.18917 0 1.41951 1.05517 0 1.39489 1.16658 0 1.41475 1.07818 0 1.40159 1.13795 0 1.40852 1.10709 0 1.25134 1.27781 0 1.29698 1.13239 0 1.2555 1.26565 0 1.29337 1.145 0 1.26229 1.24541 0 1.28728 1.16581 0 1.27066 1.21969 0 1.27939 1.19191 0 1.07243 1.10341 0 1.12434 0.980131 0 1.07715 1.09316 0 1.12024 0.990875 0 1.08486 1.07607 0 1.1133 1.00858 0 1.09438 1.05432 0 1.10431 1.03076 0 1.23474 1.26152 0 1.2808 1.11813 0 1.23895 1.24954 0 1.27716 1.13057 0 1.2458 1.22959 0 1.27101 1.1511 0 1.25424 1.20424 0 1.26304 1.17684 0 1.086 1.1165 0 1.13724 0.991526 0 1.09067 1.10611 0 1.13318 1.00241 0 1.09828 1.08878 0 1.12634 1.02036 0 1.10767 1.06672 0 1.11747 1.04284 0 1.20769 1.235 0 1.25446 1.09493 0 1.21195 1.2233 0 1.25076 1.10709 0 1.21891 1.20382 0 1.24452 1.12715 0 1.22749 1.17906 0 1.23643 1.1523 0 1.10931 1.13906 0 1.15948 1.01117 0 1.11388 1.12842 0 1.15551 1.0223 0 1.12133 1.11067 0 1.14881 1.04066 0 1.13053 1.08809 0 1.14012 1.06365 0 1.17443 1.20246 0 1.22219 1.0665 0 1.17878 1.19112 0 1.21842 1.07831 0 1.18589 1.17222 0 1.21204 1.09779 0 1.19464 1.1482 0 1.20377 1.12221 0 1.14003 1.16891 0 1.18898 1.0372 0 1.14449 1.15794 0 1.18511 1.04865 0 1.15177 1.13965 0 1.17857 1.06754 0 1.16074 1.11638 0 1.17009 1.09121 0 1.46327 1.48663 0 1.50488 1.31537 0 1.46708 1.47226 0 1.5016 1.33016 0 1.47328 1.44834 0 1.49606 1.3546 0 1.48092 1.41801 0 1.48887 1.38528 0 1.25945 1.28578 0 1.3049 1.13937 0 1.2636 1.27354 0 1.30131 1.15206 0 1.27037 1.25316 0 1.29525 1.17301 0 1.2787 1.22726 0 1.28739 1.19928 0 1.44568 1.46927 0 1.48758 1.30015 0 1.44951 1.45508 0 1.48427 1.31476 0 1.45576 1.43147 0 1.47869 1.33889 0 1.46345 1.40152 0 1.47145 1.3692 0 1.2763 1.30234 0 1.32136 1.15386 0 1.28042 1.28992 0 1.3178 1.16673 0 1.28712 1.26924 0 1.31179 1.18797 0 1.29539 1.24298 0 1.304 1.21461 0 1.41651 1.44049 0 1.4589 1.27491 0 1.42039 1.4266 0 1.45556 1.28922 0 1.42671 1.40349 0 1.44991 1.31286 0 1.43448 1.37418 0 1.44258 1.34254 0 1.30454 1.33012 0 1.349 1.17819 0 1.3086 1.3174 0 1.34549 1.19135 0 1.31522 1.29624 0 1.33956 1.21307 0 1.32337 1.26936 0 1.33187 1.24033 0 1.37978 1.40426 0 1.42281 1.24315 0 1.38372 1.39075 0 1.41941 1.25709 0 1.39013 1.36828 0 1.41368 1.2801 0 1.39802 1.33976 0 1.40624 1.30898 0 1.34064 1.36567 0 1.38438 1.20934 0 1.34464 1.35258 0 1.38093 1.22287 0 1.35116 1.33079 0 1.3751 1.24521 0 1.35918 1.30312 0 1.36754 1.27325 0 1.57013 0.937405 0 1.58972 0.755519 0 1.57208 0.92197 0 1.58833 0.771062 0 1.57519 0.896364 0 1.58592 0.796804 0 1.57892 0.864007 0 1.58266 0.829253 0 1.37655 0.812961 0 1.39827 0.655008 0 1.37869 0.799571 0 1.39672 0.668516 0 1.38213 0.777349 0 1.39402 0.690885 0 1.38625 0.749258 0 1.3904 0.719076 0 1.55333 0.926624 0 1.57309 0.746803 0 1.55529 0.911366 0 1.57168 0.76217 0 1.55843 0.886052 0 1.56924 0.787621 0 1.56219 0.854062 0 1.56596 0.819703 0 1.3924 0.823186 0 1.41393 0.663257 0 1.39453 0.809627 0 1.41239 0.676933 0 1.39794 0.787126 0 1.40972 0.69958 0 1.40202 0.758682 0 1.40613 0.728122 0 1.52548 0.908758 0 1.54553 0.732362 0 1.52748 0.893793 0 1.5441 0.747438 0 1.53066 0.868962 0 1.54163 0.772406 0 1.53447 0.837583 0 1.5383 0.803878 0 1.41905 0.840361 0 1.44027 0.677116 0 1.42116 0.826519 0 1.43875 0.691074 0 1.42452 0.803549 0 1.43613 0.714188 0 1.42854 0.774514 0 1.43259 0.74332 0 1.49048 0.886283 0 1.51089 0.7142 0 1.4925 0.871685 0 1.50944 0.728909 0 1.49574 0.847465 0 1.50691 0.753269 0 1.49962 0.816855 0 1.50352 0.783973 0 1.45326 0.862371 0 1.47409 0.694886 0 1.45533 0.848166 0 1.4726 0.709204 0 1.45863 0.824596 0 1.47002 0.732915 0 1.46258 0.794805 0 1.46656 0.762802 0 1.33801 0.969146 0 1.36786 0.814494 0 1.34086 0.956095 0 1.36561 0.827779 0 1.34545 0.934411 0 1.36178 0.849753 0 1.35102 0.906957 0 1.35672 0.877404 0 1.17079 0.840294 0 1.20383 0.706818 0 1.17397 0.829061 0 1.20137 0.718312 0 1.17909 0.810385 0 1.19715 0.737314 0 1.18528 0.786714 0 1.19158 0.761206 0 1.3222 0.957056 0 1.3523 0.804369 0 1.32507 0.944173 0 1.35004 0.817487 0 1.3297 0.922768 0 1.34617 0.839185 0 1.33532 0.895664 0 1.34107 0.866487 0 1.18312 0.849903 0 1.21587 0.714824 0 1.18627 0.838532 0 1.21343 0.726453 0 1.19134 0.819628 0 1.20924 0.74568 0 1.19746 0.79567 0 1.20371 0.769856 0 1.29651 0.937381 0 1.32704 0.787901 0 1.29943 0.924773 0 1.32475 0.800747 0 1.30413 0.903822 0 1.32083 0.821994 0 1.30982 0.877291 0 1.31565 0.848727 0 1.20447 0.866486 0 1.23675 0.728653 0 1.20757 0.854878 0 1.23434 0.740515 0 1.21256 0.835582 0 1.2302 0.760128 0 1.21859 0.811132 0 1.22475 0.784792 0 1.26513 0.913286 0 1.2962 0.767746 0 1.2681 0.901016 0 1.29387 0.780259 0 1.27288 0.880625 0 1.28988 0.800953 0 1.27869 0.854797 0 1.28462 0.826985 0 1.23293 0.888491 0 1.26462 0.747024 0 1.23596 0.876571 0 1.26225 0.759193 0 1.24085 0.856758 0 1.25818 0.779315 0 1.24677 0.831658 0 1.25282 0.804624 0 1.54213 1.12462 0 1.56917 0.944891 0 1.54471 1.10943 0 1.56714 0.960303 0 1.54887 1.08419 0 1.56367 0.985806 0 1.55392 1.05226 0 1.55909 1.01792 0 1.34576 0.975069 0 1.37548 0.819455 0 1.34859 0.961935 0 1.37325 0.832821 0 1.35317 0.940115 0 1.36943 0.85493 0 1.35871 0.912488 0 1.36439 0.882752 0 1.5251 1.11168 0 1.55236 0.934025 0 1.52771 1.09666 0 1.55031 0.949261 0 1.5319 1.07172 0 1.54682 0.974471 0 1.53699 1.04016 0 1.5422 1.00621 0 1.36187 0.987372 0 1.39134 0.829762 0 1.36468 0.974067 0 1.38913 0.843297 0 1.36921 0.951964 0 1.38534 0.865687 0 1.37471 0.923982 0 1.38034 0.893864 0 1.49689 1.09022 0 1.5245 0.916017 0 1.49952 1.0755 0 1.52243 0.93096 0 1.50377 1.05104 0 1.51888 0.955686 0 1.50893 1.0201 0 1.5142 0.986813 0 1.38894 1.00803 0 1.41802 0.847075 0 1.39171 0.994439 0 1.41583 0.860893 0 1.39618 0.971861 0 1.4121 0.883754 0 1.40161 0.943282 0 1.40717 0.912526 0 1.4614 1.06323 0 1.48947 0.893363 0 1.46408 1.04887 0 1.48737 0.907937 0 1.4684 1.02503 0 1.48376 0.932051 0 1.47364 0.994864 0 1.479 0.962406 0 1.42366 1.03449 0 1.45224 0.86926 0 1.42638 1.02053 0 1.4501 0.883441 0 1.43078 0.99735 0 1.44642 0.906904 0 1.43612 0.968008 0 1.44158 0.936435 0 1.92206 1.67195 0 1.95065 1.44533 0 1.92472 1.65277 0 1.94845 1.46476 0 1.92904 1.62094 0 1.94469 1.49691 0 1.93433 1.58068 0 1.93979 1.53739 0 1.72396 1.49856 0 1.75526 1.29596 0 1.72687 1.48145 0 1.75284 1.31336 0 1.7316 1.45303 0 1.74874 1.34213 0 1.73739 1.41706 0 1.74337 1.37835 0 1.90526 1.65724 0 1.93408 1.43266 0 1.90794 1.63824 0 1.93185 1.45192 0 1.9123 1.6067 0 1.92807 1.48378 0 1.91762 1.5668 0 1.92313 1.5239 0 1.74092 1.51341 0 1.77199 1.30875 0 1.74381 1.49612 0 1.76959 1.32632 0 1.74851 1.46741 0 1.76551 1.35539 0 1.75425 1.43107 0 1.76019 1.39197 0 1.87738 1.63285 0 1.90658 1.41165 0 1.88011 1.61414 0 1.90433 1.43062 0 1.88452 1.58308 0 1.9005 1.46201 0 1.88992 1.54378 0 1.89549 1.50152 0 1.76899 1.53797 0 1.79967 1.32991 0 1.77185 1.52039 0 1.7973 1.34777 0 1.77648 1.4912 0 1.79328 1.37732 0 1.78216 1.45425 0 1.78802 1.4145 0 1.84217 1.60203 0 1.87185 1.38509 0 1.84493 1.58368 0 1.86956 1.4037 0 1.84942 1.55323 0 1.86566 1.43449 0 1.85491 1.5147 0 1.86058 1.47325 0 1.80434 1.56891 0 1.83453 1.35657 0 1.80715 1.55097 0 1.8322 1.37479 0 1.81171 1.52116 0 1.82824 1.40493 0 1.8173 1.48345 0 1.82307 1.44288 0 1.67619 1.69675 0 1.71428 1.4996 0 1.67968 1.68015 0 1.71128 1.51658 0 1.68537 1.65256 0 1.70621 1.54465 0 1.69236 1.6176 0 1.69963 1.57993 0 1.47181 1.49505 0 1.51327 1.32275 0 1.4756 1.48059 0 1.51 1.33763 0 1.48178 1.45652 0 1.50448 1.36221 0 1.48939 1.426 0 1.49731 1.39308 0 1.65891 1.67969 0 1.69727 1.48464 0 1.66242 1.66327 0 1.69425 1.50144 0 1.66815 1.63598 0 1.68915 1.52922 0 1.67519 1.60139 0 1.68252 1.56412 0 1.48936 1.51237 0 1.53053 1.33794 0 1.49313 1.49772 0 1.52729 1.353 0 1.49927 1.47336 0 1.5218 1.37788 0 1.50682 1.44246 0 1.51469 1.40913 0 1.63021 1.65138 0 1.66906 1.45982 0 1.63377 1.63526 0 1.666 1.47632 0 1.63957 1.60846 0 1.66083 1.50361 0 1.6467 1.5745 0 1.65412 1.53789 0 1.51838 1.54102 0 1.55907 1.36305 0 1.52211 1.52606 0 1.55587 1.37841 0 1.52818 1.5012 0 1.55045 1.40379 0 1.53565 1.46967 0 1.54342 1.43566 0 1.59393 1.61557 0 1.63337 1.42842 0 1.59754 1.59983 0 1.63026 1.44455 0 1.60342 1.57365 0 1.62501 1.47122 0 1.61066 1.54048 0 1.6182 1.50472 0 1.5549 1.57705 0 1.59498 1.39464 0 1.55857 1.56172 0 1.59182 1.41038 0 1.56455 1.53622 0 1.58649 1.43638 0 1.5719 1.50389 0 1.57956 1.46904 0 1.88611 1.90392 0 1.92075 1.68124 0 1.88929 1.88512 0 1.91802 1.70038 0 1.89446 1.8539 0 1.91341 1.73202 0 1.90082 1.81437 0 1.90743 1.77183 0 1.68458 1.70503 0 1.72252 1.50685 0 1.68805 1.68834 0 1.71954 1.52392 0 1.69372 1.6606 0 1.71449 1.55213 0 1.70068 1.62545 0 1.70793 1.58759 0 1.86902 1.88705 0 1.90394 1.66645 0 1.87222 1.86843 0 1.90119 1.68541 0 1.87743 1.8375 0 1.89654 1.71676 0 1.88384 1.79835 0 1.89051 1.7562 0 1.70183 1.72206 0 1.7395 1.52179 0 1.70529 1.70519 0 1.73653 1.53903 0 1.71091 1.67715 0 1.73152 1.56753 0 1.71782 1.64163 0 1.72502 1.60337 0 1.84067 1.85907 0 1.87605 1.64192 0 1.84391 1.84075 0 1.87326 1.66059 0 1.84919 1.81031 0 1.86856 1.69145 0 1.85569 1.77177 0 1.86245 1.73028 0 1.73039 1.75024 0 1.76758 1.5465 0 1.7338 1.73307 0 1.76466 1.56403 0 1.73935 1.70454 0 1.75971 1.59302 0 1.74618 1.6684 0 1.75328 1.62947 0 1.80484 1.82371 0 1.84081 1.61092 0 1.80814 1.80577 0 1.83798 1.62922 0 1.81351 1.77595 0 1.83319 1.65948 0 1.82011 1.73819 0 1.82698 1.69753 0 1.76635 1.78573 0 1.80295 1.57762 0 1.76971 1.76819 0 1.80007 1.59552 0 1.77517 1.73903 0 1.7952 1.62512 0 1.78189 1.70211 0 1.78888 1.66235 0 2.33079 2.02964 0 2.35396 1.75349 0 2.33294 2.00621 0 2.35216 1.77711 0 2.33643 1.96735 0 2.34911 1.81621 0 2.3407 1.91824 0 2.34513 1.86548 0 2.13486 1.85818 0 2.16061 1.60578 0 2.13725 1.83679 0 2.15862 1.62739 0 2.14114 1.8013 0 2.15523 1.66316 0 2.1459 1.75643 0 2.15082 1.70821 0 2.3141 2.01503 0 2.33749 1.74091 0 2.31627 1.99178 0 2.33568 1.76436 0 2.31979 1.9532 0 2.3326 1.80318 0 2.32411 1.90446 0 2.32858 1.85209 0 2.15156 1.8728 0 2.1771 1.61838 0 2.15393 1.85123 0 2.17512 1.64016 0 2.15779 1.81546 0 2.17176 1.67621 0 2.1625 1.77023 0 2.16738 1.72162 0 2.28644 1.99083 0 2.3102 1.72007 0 2.28865 1.96787 0 2.30836 1.74323 0 2.29223 1.92977 0 2.30523 1.78158 0 2.29662 1.88162 0 2.30115 1.82989 0 2.17923 1.89701 0 2.2044 1.63924 0 2.18157 1.87516 0 2.20245 1.6613 0 2.18537 1.83891 0 2.19914 1.69783 0 2.19002 1.79308 0 2.19482 1.74383 0 2.25155 1.9603 0 2.27577 1.69376 0 2.2538 1.9377 0 2.27389 1.71657 0 2.25745 1.9002 0 2.27071 1.75432 0 2.26192 1.85281 0 2.26655 1.80189 0 2.21413 1.92755 0 2.23884 1.66555 0 2.21643 1.90534 0 2.23693 1.68797 0 2.22016 1.86849 0 2.23368 1.72509 0 2.22472 1.8219 0 2.22944 1.77185 0 2.09433 2.10941 0 2.12557 1.86141 0 2.09719 2.08843 0 2.12311 1.88268 0 2.10185 2.0536 0 2.11894 1.91787 0 2.10758 2.00954 0 2.11355 1.96217 0 1.89441 1.9121 0 1.92891 1.68842 0 1.89757 1.89322 0 1.92619 1.70764 0 1.90272 1.86185 0 1.9216 1.73942 0 1.90905 1.82214 0 1.91564 1.77941 0 2.07734 2.09263 0 2.10885 1.84671 0 2.08022 2.07183 0 2.10636 1.8678 0 2.08492 2.0373 0 2.10217 1.9027 0 2.0907 1.99361 0 2.09672 1.94663 0 1.91148 1.92896 0 1.94571 1.7032 0 1.91462 1.90989 0 1.94301 1.72259 0 1.91973 1.87823 0 1.93846 1.75466 0 1.92601 1.83815 0 1.93255 1.79502 0 2.04916 2.06483 0 2.08113 1.82233 0 2.05209 2.04432 0 2.07861 1.84313 0 2.05686 2.01027 0 2.07435 1.87755 0 2.06272 1.9672 0 2.06883 1.92087 0 1.93976 1.95686 0 1.97352 1.72767 0 1.94285 1.9375 0 1.97086 1.74735 0 1.94789 1.90535 0 1.96637 1.7799 0 1.95409 1.86466 0 1.96054 1.82087 0 2.01359 2.02972 0 2.04614 1.79154 0 2.01657 2.00959 0 2.04357 1.81198 0 2.02142 1.97615 0 2.03924 1.8458 0 2.0274 1.93386 0 2.03362 1.88835 0 1.9754 1.99204 0 2.00858 1.75851 0 1.97844 1.9723 0 2.00597 1.77855 0 1.98339 1.93953 0 2.00155 1.81172 0 1.98948 1.89807 0 1.99582 1.85345 0 2.30188 2.31424 0 2.32973 2.041 0 2.30443 2.29108 0 2.32753 2.0644 0 2.30858 2.25266 0 2.32382 2.10312 0 2.31369 2.20409 0 2.31901 2.1519 0 2.10258 2.11755 0 2.13368 1.86855 0 2.10543 2.09648 0 2.13123 1.8899 0 2.11007 2.06151 0 2.12709 1.92523 0 2.11577 2.01728 0 2.12171 1.96971 0 2.28491 2.29748 0 2.31303 2.02631 0 2.28748 2.27451 0 2.31081 2.04953 0 2.29167 2.23638 0 2.30706 2.08797 0 2.29683 2.18818 0 2.3022 2.13638 0 2.11957 2.13432 0 2.15039 1.88325 0 2.12239 2.11307 0 2.14796 1.90478 0 2.12699 2.07781 0 2.14386 1.9404 0 2.13265 2.0332 0 2.13853 1.98524 0 2.25678 2.26972 0 2.28536 2.00197 0 2.25939 2.24704 0 2.28311 2.02491 0 2.26365 2.2094 0 2.2793 2.06286 0 2.2689 2.16182 0 2.27436 2.11066 0 2.14772 2.16209 0 2.17808 1.90761 0 2.1505 2.14056 0 2.17569 1.92942 0 2.15503 2.1048 0 2.17164 1.96552 0 2.1606 2.05959 0 2.1664 2.01097 0 2.22129 2.2347 0 2.25045 1.97126 0 2.22396 2.21239 0 2.24815 1.99383 0 2.2283 2.17536 0 2.24426 2.03119 0 2.23365 2.12855 0 2.23922 2.07822 0 2.18322 2.19713 0 2.21301 1.93833 0 2.18595 2.17522 0 2.21066 1.96051 0 2.19039 2.13885 0 2.20669 1.99721 0 2.19585 2.09287 0 2.20154 2.04342 0 2.37395 1.45213 0 2.38768 1.17228 0 2.37529 1.42833 0 2.38668 1.19616 0 2.37745 1.38888 0 2.38497 1.23572 0 2.38005 1.33907 0 2.38267 1.2856 0 2.18265 1.32978 0 2.19758 1.0732 0 2.18413 1.30797 0 2.19651 1.0951 0 2.18649 1.27181 0 2.19466 1.13138 0 2.18932 1.22614 0 2.19217 1.17712 0 2.35765 1.44171 0 2.37148 1.16385 0 2.35901 1.41808 0 2.37049 1.18756 0 2.36119 1.37891 0 2.36876 1.22684 0 2.3638 1.32945 0 2.36644 1.27637 0 2.19896 1.34021 0 2.21379 1.08165 0 2.20042 1.31823 0 2.21272 1.10372 0 2.20277 1.28179 0 2.21088 1.14027 0 2.20558 1.23577 0 2.20841 1.18637 0 2.33065 1.42444 0 2.34465 1.14987 0 2.33203 1.4011 0 2.34364 1.1733 0 2.33423 1.36239 0 2.3419 1.21211 0 2.33688 1.31352 0 2.33956 1.26106 0 2.22598 1.35749 0 2.24063 1.09565 0 2.22742 1.33523 0 2.23958 1.11799 0 2.22974 1.29833 0 2.23776 1.15501 0 2.23251 1.25172 0 2.23531 1.2017 0 2.29659 1.40266 0 2.3108 1.13222 0 2.29799 1.37967 0 2.30978 1.1553 0 2.30023 1.34154 0 2.30801 1.19353 0 2.30292 1.29341 0 2.30563 1.24174 0 2.26005 1.37929 0 2.27449 1.1133 0 2.26147 1.35668 0 2.27346 1.136 0 2.26375 1.31918 0 2.27166 1.1736 0 2.26649 1.27184 0 2.26925 1.22102 0 2.15357 1.58921 0 2.17401 1.33526 0 2.15551 1.56766 0 2.17247 1.35697 0 2.15865 1.53191 0 2.16984 1.39291 0 2.16247 1.48674 0 2.16637 1.43822 0 1.95975 1.442 0 1.98213 1.21152 0 1.96188 1.42246 0 1.98045 1.23124 0 1.96533 1.39003 0 1.97758 1.26389 0 1.96951 1.34905 0 1.97379 1.30502 0 2.13709 1.5767 0 2.15769 1.32474 0 2.13905 1.55532 0 2.15614 1.34628 0 2.14221 1.51985 0 2.15349 1.38195 0 2.14606 1.47503 0 2.14999 1.4269 0 1.9763 1.45458 0 1.99851 1.22209 0 1.97842 1.43486 0 1.99685 1.24198 0 1.98184 1.40215 0 1.994 1.27491 0 1.98599 1.36081 0 1.99023 1.3164 0 2.10977 1.55595 0 2.13064 1.3073 0 2.11176 1.53485 0 2.12907 1.32856 0 2.11497 1.49985 0 2.12639 1.36376 0 2.11886 1.45563 0 2.12285 1.40812 0 2.00371 1.4754 0 2.02565 1.23959 0 2.0058 1.4554 0 2.024 1.25976 0 2.00918 1.42222 0 2.02118 1.29316 0 2.01328 1.38029 0 2.01746 1.33524 0 2.07528 1.52976 0 2.09649 1.28528 0 2.0773 1.50902 0 2.0949 1.30619 0 2.08056 1.47461 0 2.09217 1.3408 0 2.08452 1.43113 0 2.08858 1.38442 0 2.03826 1.50164 0 2.05985 1.26165 0 2.04032 1.48129 0 2.05823 1.28218 0 2.04364 1.44751 0 2.05545 1.31616 0 2.04767 1.40483 0 2.05179 1.35898 0 2.35482 1.74202 0 2.37328 1.46367 0 2.35657 1.71838 0 2.37189 1.48745 0 2.3594 1.67917 0 2.3695 1.52683 0 2.36284 1.62965 0 2.36636 1.57647 0 2.16157 1.59529 0 2.18192 1.34036 0 2.1635 1.57365 0 2.18039 1.36215 0 2.16663 1.53776 0 2.17777 1.39824 0 2.17043 1.49242 0 2.17432 1.44372 0 2.33836 1.72952 0 2.35698 1.45317 0 2.34013 1.70605 0 2.35558 1.47678 0 2.34298 1.66713 0 2.35317 1.51588 0 2.34645 1.61796 0 2.35 1.56517 0 2.17804 1.6078 0 2.19824 1.35088 0 2.17996 1.58599 0 2.19672 1.37284 0 2.18306 1.54982 0 2.19412 1.4092 0 2.18683 1.50412 0 2.19069 1.45503 0 2.31108 1.70882 0 2.32997 1.43577 0 2.31288 1.68563 0 2.32855 1.4591 0 2.31577 1.64717 0 2.32611 1.49773 0 2.31929 1.5986 0 2.3229 1.54643 0 2.20533 1.62852 0 2.22526 1.36829 0 2.20723 1.60643 0 2.22376 1.39054 0 2.21029 1.56979 0 2.22119 1.42737 0 2.214 1.5235 0 2.21781 1.47379 0 2.27667 1.68269 0 2.2959 1.41381 0 2.27849 1.65986 0 2.29445 1.43679 0 2.28144 1.62199 0 2.29197 1.47484 0 2.28503 1.57416 0 2.2887 1.52279 0 2.23976 1.65466 0 2.25935 1.39026 0 2.24162 1.63222 0 2.25787 1.41286 0 2.24463 1.59498 0 2.25535 1.45028 0 2.24828 1.54795 0 2.25202 1.49744 0 2.00224 0.714249 0 2.00626 0.482444 0 2.00281 0.694476 0 2.00615 0.502158 0 2.00366 0.661716 0 2.00586 0.534842 0 2.00457 0.620397 0 2.00534 0.57611 0 1.81136 0.639548 0 1.81556 0.431455 0 1.81197 0.621786 0 1.81545 0.449139 0 1.81287 0.592363 0 1.81517 0.478464 0 1.81383 0.555259 0 1.81463 0.515501 0 1.98602 0.707908 0 1.99005 0.478114 0 1.9866 0.688305 0 1.98994 0.497656 0 1.98745 0.655829 0 1.98965 0.530055 0 1.98836 0.614867 0 1.98913 0.570965 0 1.82768 0.645938 0 1.83184 0.435815 0 1.82828 0.628004 0 1.83173 0.453672 0 1.82918 0.598295 0 1.83145 0.483285 0 1.83013 0.56083 0 1.83092 0.520685 0 1.95914 0.697393 0 1.96317 0.470935 0 1.95971 0.678073 0 1.96306 0.49019 0 1.96057 0.646065 0 1.96278 0.522117 0 1.96149 0.605697 0 1.96226 0.562431 0 1.85469 0.656516 0 1.85881 0.443032 0 1.85528 0.638296 0 1.8587 0.461177 0 1.85617 0.608115 0 1.85843 0.491266 0 1.85711 0.570053 0 1.8579 0.529265 0 1.92518 0.684109 0 1.92923 0.461866 0 1.92576 0.665146 0 1.92912 0.48076 0 1.92663 0.633732 0 1.92885 0.51209 0 1.92755 0.594113 0 1.92832 0.551652 0 1.88872 0.669841 0 1.89281 0.452127 0 1.88931 0.651263 0 1.8927 0.470634 0 1.89019 0.620486 0 1.89242 0.501322 0 1.89112 0.581672 0 1.8919 0.540076 0 1.79217 0.852594 0 1.80313 0.645026 0 1.79336 0.834921 0 1.80245 0.662708 0 1.79523 0.805628 0 1.80122 0.692015 0 1.79739 0.768655 0 1.79948 0.728997 0 1.59845 0.752158 0 1.61056 0.568511 0 1.59975 0.736522 0 1.6098 0.584153 0 1.60181 0.710603 0 1.60843 0.61008 0 1.6042 0.677888 0 1.60651 0.642799 0 1.77576 0.84409 0 1.7868 0.638543 0 1.77696 0.826589 0 1.78611 0.656053 0 1.77883 0.797581 0 1.78487 0.685074 0 1.78102 0.760968 0 1.78312 0.721695 0 1.61505 0.760773 0 1.62704 0.57507 0 1.61635 0.744962 0 1.6263 0.590887 0 1.61838 0.718752 0 1.62494 0.617104 0 1.62075 0.685672 0 1.62304 0.650189 0 1.74853 0.829979 0 1.75971 0.627787 0 1.74974 0.812764 0 1.75901 0.645011 0 1.75164 0.784229 0 1.75776 0.673558 0 1.75385 0.748213 0 1.75599 0.709581 0 1.64252 0.775023 0 1.65433 0.585919 0 1.6438 0.758922 0 1.65359 0.602026 0 1.64581 0.732233 0 1.65226 0.628723 0 1.64814 0.698547 0 1.65039 0.662415 0 1.7141 0.812138 0 1.72547 0.614191 0 1.71534 0.795284 0 1.72477 0.631053 0 1.71727 0.767348 0 1.72349 0.659 0 1.71952 0.732088 0 1.72169 0.694267 0 1.67711 0.792957 0 1.68869 0.599578 0 1.67836 0.776492 0 1.68797 0.61605 0 1.68033 0.7492 0 1.68667 0.643351 0 1.68262 0.714753 0 1.68483 0.677804 0 1.99182 0.955939 0 2.00195 0.723848 0 1.99291 0.93618 0 2.00131 0.743624 0 1.99463 0.903428 0 2.00017 0.776398 0 1.99662 0.862091 0 1.99856 0.81775 0 1.80014 0.856718 0 1.81105 0.64817 0 1.80132 0.838962 0 1.81038 0.665937 0 1.80318 0.809531 0 1.80915 0.695382 0 1.80534 0.772383 0 1.80742 0.732538 0 1.97554 0.947519 0 1.98573 0.717424 0 1.97664 0.92793 0 1.98509 0.73703 0 1.97837 0.89546 0 1.98394 0.769521 0 1.98038 0.854478 0 1.98233 0.810518 0 1.81653 0.86521 0 1.82737 0.654644 0 1.81771 0.847282 0 1.8267 0.672583 0 1.81955 0.817566 0 1.82548 0.702313 0 1.82169 0.78006 0 1.82376 0.739829 0 1.94855 0.933556 0 1.95884 0.706771 0 1.94966 0.914248 0 1.9582 0.726095 0 1.95141 0.882245 0 1.95704 0.758118 0 1.95344 0.841852 0 1.95541 0.798524 0 1.84367 0.879263 0 1.85438 0.66536 0 1.84483 0.861051 0 1.85371 0.683584 0 1.84665 0.830864 0 1.85251 0.713786 0 1.84877 0.792764 0 1.85081 0.751896 0 1.91446 0.915914 0 1.92488 0.693314 0 1.91559 0.896963 0 1.92423 0.71228 0 1.91736 0.865549 0 1.92306 0.743712 0 1.91942 0.825901 0 1.92141 0.783372 0 1.87785 0.896965 0 1.88842 0.67886 0 1.879 0.878396 0 1.88776 0.697442 0 1.8808 0.847616 0 1.88658 0.728238 0 1.88288 0.808768 0 1.8849 0.767098 0 2.39741 0.86845 0 2.40168 0.587748 0 2.39795 0.844529 0 2.4015 0.611649 0 2.39877 0.80489 0 2.40111 0.651262 0 2.39968 0.75488 0 2.4005 0.701255 0 2.20787 0.79456 0 2.21198 0.537293 0 2.20842 0.772627 0 2.21183 0.559187 0 2.20925 0.736286 0 2.2115 0.59548 0 2.21016 0.690441 0 2.21094 0.641292 0 2.38127 0.862161 0 2.38552 0.583455 0 2.38181 0.838409 0 2.38534 0.607184 0 2.38263 0.799051 0 2.38496 0.646515 0 2.38354 0.749395 0 2.38435 0.696152 0 2.22403 0.800863 0 2.22815 0.541598 0 2.22458 0.77876 0 2.22799 0.563663 0 2.22541 0.742138 0 2.22766 0.600239 0 2.22631 0.695938 0 2.2271 0.646407 0 2.35451 0.851738 0 2.35875 0.576338 0 2.35506 0.828266 0 2.35857 0.599785 0 2.35588 0.789374 0 2.3582 0.638647 0 2.35679 0.740306 0 2.3576 0.687694 0 2.25079 0.811303 0 2.25493 0.548728 0 2.25134 0.78892 0 2.25478 0.571076 0 2.25217 0.751831 0 2.25444 0.608121 0 2.25307 0.705043 0 2.25386 0.65488 0 2.32076 0.838582 0 2.32496 0.567356 0 2.3213 0.815465 0 2.32479 0.590446 0 2.32213 0.77716 0 2.32443 0.628716 0 2.32303 0.728834 0 2.32384 0.677019 0 2.28456 0.824469 0 2.28873 0.557719 0 2.2851 0.801732 0 2.28856 0.580425 0 2.28593 0.764056 0 2.28821 0.618062 0 2.28683 0.716526 0 2.28763 0.665565 0 2.19022 1.0585 0 2.19975 0.802107 0 2.19124 1.03668 0 2.19914 0.823958 0 2.19284 1.0005 0 2.19805 0.860168 0 2.19471 0.954835 0 2.19653 0.905852 0 1.99971 0.960023 0 2.00982 0.726964 0 2.0008 0.940182 0 2.00919 0.746823 0 2.00251 0.907294 0 2.00804 0.779734 0 2.00451 0.865785 0 2.00644 0.821258 0 2.17402 1.05013 0 2.18359 0.795719 0 2.17504 1.02847 0 2.18298 0.817401 0 2.17665 0.992574 0 2.18189 0.85333 0 2.17853 0.947265 0 2.18035 0.898661 0 2.01598 0.968435 0 2.02603 0.733382 0 2.01706 0.948424 0 2.0254 0.753412 0 2.01876 0.915255 0 2.02426 0.786604 0 2.02074 0.873391 0 2.02266 0.828484 0 2.14716 1.03625 0 2.15681 0.785129 0 2.14819 1.01487 0 2.15619 0.80653 0 2.14981 0.979439 0 2.15509 0.841995 0 2.15171 0.934715 0 2.15355 0.886739 0 2.04291 0.982364 0 2.05287 0.74401 0 2.04398 0.962072 0 2.05225 0.764321 0 2.04567 0.928437 0 2.05112 0.79798 0 2.04763 0.885986 0 2.04953 0.840448 0 2.11325 1.01873 0 2.123 0.771758 0 2.1143 0.997704 0 2.12238 0.792805 0 2.11594 0.962855 0 2.12127 0.827682 0 2.11786 0.918869 0 2.11972 0.871686 0 2.07687 0.99992 0 2.08672 0.757406 0 2.07792 0.979275 0 2.0861 0.778072 0 2.07959 0.945053 0 2.08498 0.81232 0 2.08153 0.901861 0 2.08341 0.855529 0 2.38815 1.16069 0 2.39714 0.880061 0 2.38909 1.1368 0 2.39655 0.903982 0 2.39058 1.0972 0 2.3955 0.943617 0 2.39233 1.04723 0 2.39405 0.993619 0 2.19809 1.06257 0 2.20759 0.805206 0 2.1991 1.04066 0 2.20698 0.82714 0 2.2007 1.00434 0 2.2059 0.863486 0 2.20256 0.958509 0 2.20437 0.909342 0 2.37196 1.15233 0 2.38099 0.87369 0 2.37291 1.12861 0 2.3804 0.897441 0 2.3744 1.0893 0 2.37935 0.936796 0 2.37617 1.03968 0 2.37789 0.986445 0 2.21429 1.07093 0 2.22375 0.811591 0 2.2153 1.04886 0 2.22314 0.833695 0 2.21688 1.01226 0 2.22206 0.870321 0 2.21873 0.966076 0 2.22054 0.91653 0 2.34513 1.13849 0 2.35424 0.86313 0 2.34609 1.11505 0 2.35365 0.886601 0 2.3476 1.0762 0 2.35259 0.925492 0 2.34938 1.02716 0 2.35112 0.974555 0 2.24113 1.0848 0 2.25051 0.822168 0 2.24212 1.06244 0 2.24991 0.844552 0 2.2437 1.02538 0 2.24883 0.881642 0 2.24553 0.97861 0 2.24733 0.928437 0 2.31128 1.12102 0 2.32048 0.849803 0 2.31226 1.09793 0 2.31989 0.87292 0 2.31379 1.05966 0 2.31882 0.911225 0 2.31558 1.01136 0 2.31734 0.95955 0 2.27498 1.10228 0 2.28428 0.835506 0 2.27597 1.07957 0 2.28368 0.858244 0 2.27752 1.04193 0 2.28261 0.89592 0 2.27934 0.994418 0 2.28111 0.943453 0 2.40123 0.284512 0 2.39618 0.00574593 0 2.40098 0.260704 0 2.39678 0.0294302 0 2.40048 0.221274 0 2.39771 0.0687058 0 2.39972 0.171565 0 2.39876 0.118311 0 2.21064 0.25978 0 2.20416 0.0052394 0 2.21029 0.238017 0 2.2049 0.0268391 0 2.20961 0.201982 0 2.20606 0.0626694 0 2.20862 0.156571 0 2.20738 0.107943 0 2.385 0.282408 0 2.37982 0.00570285 0 2.38473 0.258774 0 2.38044 0.0292098 0 2.38422 0.219633 0 2.38138 0.0681923 0 2.38344 0.17029 0 2.38245 0.117429 0 2.22689 0.26189 0 2.22052 0.00528263 0 2.22654 0.239953 0 2.22125 0.0270602 0 2.22588 0.203629 0 2.22239 0.0631845 0 2.22491 0.15785 0 2.22369 0.108827 0 2.3581 0.27892 0 2.35271 0.00563143 0 2.35781 0.255575 0 2.35335 0.0288445 0 2.35728 0.216913 0 2.35433 0.0673412 0 2.35647 0.168175 0 2.35544 0.115967 0 2.2538 0.265386 0 2.24763 0.00535423 0 2.25346 0.243159 0 2.24834 0.0274265 0 2.25283 0.206355 0 2.24945 0.0640378 0 2.25189 0.15997 0 2.25071 0.110293 0 2.32415 0.274518 0 2.31851 0.00554127 0 2.32385 0.251536 0 2.31917 0.0283833 0 2.32328 0.213479 0 2.32019 0.0662667 0 2.32243 0.165506 0 2.32135 0.114121 0 2.28774 0.269794 0 2.28183 0.00544452 0 2.28743 0.247203 0 2.28252 0.0278883 0 2.28682 0.209794 0 2.28359 0.0651137 0 2.28593 0.162642 0 2.2848 0.112141 0 2.20419 0.524619 0 2.20292 0.269283 0 2.20428 0.502818 0 2.20323 0.29098 0 2.20435 0.466709 0 2.20366 0.32696 0 2.20429 0.421181 0 2.20405 0.3724 0 2.01417 0.474939 0 2.01221 0.243453 0 2.01423 0.455155 0 2.0126 0.263103 0 2.01423 0.422395 0 2.01315 0.295696 0 2.01407 0.381101 0 2.01369 0.336876 0 2.18802 0.520396 0 2.18668 0.267087 0 2.1881 0.498766 0 2.187 0.28861 0 2.18817 0.462941 0 2.18744 0.324302 0 2.1881 0.417773 0 2.18785 0.36938 0 2.03038 0.479182 0 2.02847 0.245659 0 2.03044 0.459226 0 2.02885 0.265483 0 2.03045 0.426179 0 2.0294 0.298366 0 2.03029 0.384524 0 2.02992 0.33991 0 2.16121 0.513394 0 2.15977 0.263446 0 2.1613 0.492049 0 2.1601 0.284681 0 2.16135 0.456696 0 2.16056 0.319895 0 2.16126 0.412125 0 2.16099 0.364373 0 2.05723 0.486207 0 2.05541 0.249311 0 2.05729 0.465966 0 2.05578 0.269425 0 2.05731 0.432446 0 2.05631 0.302787 0 2.05716 0.390192 0 2.05681 0.344933 0 2.12738 0.504553 0 2.12581 0.258849 0 2.12746 0.483567 0 2.12615 0.27972 0 2.1275 0.44881 0 2.12664 0.314332 0 2.12739 0.404992 0 2.12709 0.358052 0 2.09109 0.495064 0 2.08938 0.253916 0 2.09116 0.474463 0 2.08974 0.274395 0 2.09118 0.440346 0 2.09025 0.30836 0 2.09106 0.397337 0 2.09073 0.351266 0 2.40176 0.576149 0 2.40135 0.296071 0 2.4019 0.552255 0 2.40156 0.319892 0 2.40206 0.512671 0 2.40183 0.359385 0 2.40213 0.46275 0 2.40205 0.409245 0 2.21204 0.526668 0 2.21081 0.270348 0 2.21213 0.504784 0 2.21111 0.29213 0 2.21221 0.468537 0 2.21153 0.32825 0 2.21215 0.422834 0 2.21192 0.373866 0 2.3856 0.571938 0 2.38512 0.293883 0 2.38574 0.548215 0 2.38533 0.31753 0 2.38589 0.508916 0 2.38562 0.356736 0 2.38595 0.459354 0 2.38586 0.406235 0 2.22821 0.53089 0 2.22704 0.272543 0 2.2283 0.508834 0 2.22734 0.294499 0 2.22839 0.472302 0 2.22775 0.330906 0 2.22834 0.42624 0 2.22812 0.376885 0 2.35882 0.564959 0 2.35822 0.290255 0 2.35895 0.54152 0 2.35845 0.313616 0 2.35909 0.502692 0 2.35876 0.352345 0 2.35914 0.453725 0 2.35902 0.401245 0 2.255 0.537882 0 2.25395 0.276179 0 2.2551 0.515543 0 2.25423 0.298423 0 2.25519 0.47854 0 2.25462 0.335307 0 2.25517 0.431881 0 2.25497 0.381885 0 2.32503 0.556151 0 2.32428 0.285676 0 2.32515 0.533069 0 2.32453 0.308674 0 2.32528 0.494835 0 2.32487 0.346803 0 2.3253 0.446619 0 2.32516 0.394948 0 2.28879 0.5467 0 2.28789 0.280763 0 2.28891 0.524002 0 2.28815 0.303371 0 2.28901 0.486405 0 2.28852 0.340856 0 2.28901 0.438995 0 2.28884 0.38819 0 0.130016 1.24979 0 0.255426 1.25182 0 0.140532 1.2502 0 0.244531 1.25193 0 0.15801 1.25081 0 0.22658 1.25198 0 0.180172 1.25141 0 0.204098 1.25183 0 0.111593 1.13953 0 0.220139 1.14108 0 0.120668 1.13993 0 0.210689 1.14131 0 0.135765 1.14051 0 0.195124 1.1415 0 0.15493 1.14108 0 0.175643 1.14145 0 0.128313 1.23918 0 0.252163 1.24127 0 0.138694 1.2396 0 0.241399 1.24139 0 0.15595 1.24022 0 0.223666 1.24144 0 0.177833 1.24084 0 0.201461 1.24127 0 0.113145 1.14861 0 0.223142 1.15043 0 0.122342 1.14902 0 0.213564 1.15063 0 0.137641 1.14964 0 0.19779 1.15078 0 0.15706 1.15026 0 0.178049 1.15068 0 0.125591 1.22245 0 0.246959 1.22464 0 0.135757 1.22288 0 0.236404 1.22476 0 0.152659 1.22352 0 0.219018 1.22481 0 0.174098 1.22417 0 0.197252 1.22463 0 0.115681 1.16344 0 0.228023 1.16556 0 0.125075 1.16388 0 0.21824 1.16573 0 0.140701 1.16453 0 0.202129 1.16583 0 0.160534 1.1652 0 0.181968 1.16567 0 0.122291 1.20251 0 0.240661 1.2048 0 0.132199 1.20295 0 0.23036 1.20493 0 0.148675 1.20362 0 0.213394 1.20498 0 0.169578 1.20429 0 0.19216 1.20478 0 0.118854 1.18209 0 0.234101 1.18438 0 0.128495 1.18253 0 0.224066 1.18452 0 0.144529 1.1832 0 0.207542 1.18458 0 0.164876 1.18389 0 0.186863 1.18439 0 0.00214045 1.13006 0 0.106463 1.13488 0 0.0109637 1.13037 0 0.0974834 1.13447 0 0.0256005 1.13097 0 0.0826519 1.13375 0 0.0441064 1.13182 0 0.0640146 1.13281 0 0.00169602 1.00337 0 0.0850035 1.00008 0 0.00869657 1.00334 0 0.0778165 1.00062 0 0.0203393 1.00319 0 0.0659411 1.00141 0 0.0351021 1.00283 0 0.0510206 1.00221 0 0.00210804 1.1211 0 0.10493 1.12556 0 0.0107986 1.12138 0 0.0960759 1.12518 0 0.0252184 1.12193 0 0.081452 1.12451 0 0.0434546 1.12272 0 0.0630778 1.12364 0 0.0017413 1.01682 0 0.0872416 1.01464 0 0.00892795 1.01682 0 0.0798633 1.01504 0 0.0208779 1.01675 0 0.0676743 1.0156 0 0.0360278 1.01654 0 0.0523625 1.01615 0 0.00205285 1.10581 0 0.102313 1.10958 0 0.0105174 1.10605 0 0.0936731 1.10926 0 0.0245673 1.10651 0 0.0794045 1.1087 0 0.0423437 1.10718 0 0.0614802 1.10796 0 0.00181253 1.03771 0 0.0907384 1.03716 0 0.00929179 1.03776 0 0.0830631 1.03734 0 0.0217241 1.03781 0 0.0703864 1.03758 0 0.0374801 1.03783 0 0.054465 1.03776 0 0.00197986 1.08546 0 0.0988322 1.08812 0 0.0101455 1.08564 0 0.0904792 1.08793 0 0.0237055 1.08598 0 0.0766857 1.08756 0 0.040872 1.08647 0 0.0593614 1.08704 0 0.00189636 1.06185 0 0.0948142 1.06302 0 0.00971965 1.06196 0 0.086796 1.063 0 0.0227179 1.06216 0 0.0735547 1.0629 0 0.0391828 1.06243 0 0.0569254 1.0627 0 0.00252697 1.24266 0 0.12492 1.24957 0 0.0129359 1.24333 0 0.114436 1.24911 0 0.030177 1.24442 0 0.0971009 1.24827 0 0.0519314 1.24576 0 0.0752833 1.24711 0 0.00215598 1.13435 0 0.107196 1.13933 0 0.0110428 1.13469 0 0.0981572 1.13891 0 0.0257836 1.13531 0 0.0832266 1.13817 0 0.0444187 1.13619 0 0.0644634 1.1372 0 0.00249345 1.23215 0 0.123283 1.23897 0 0.0127644 1.23279 0 0.112934 1.23849 0 0.0297774 1.23385 0 0.0958234 1.23765 0 0.0512449 1.23516 0 0.0742904 1.23649 0 0.00218763 1.14312 0 0.108691 1.1484 0 0.011204 1.14349 0 0.0995298 1.14795 0 0.0261568 1.14416 0 0.0843973 1.14717 0 0.0450551 1.14509 0 0.0653778 1.14616 0 0.00243944 1.21557 0 0.120664 1.22223 0 0.0124883 1.21617 0 0.11053 1.22175 0 0.0291349 1.21717 0 0.0937777 1.2209 0 0.0501427 1.21843 0 0.0726985 1.21974 0 0.00223931 1.15753 0 0.11113 1.16322 0 0.0114673 1.15794 0 0.101771 1.16274 0 0.0267664 1.15868 0 0.0863097 1.16192 0 0.0460947 1.1597 0 0.0668716 1.16085 0 0.00237332 1.19586 0 0.11749 1.20228 0 0.0121507 1.19641 0 0.107615 1.2018 0 0.0283505 1.19733 0 0.0912937 1.20094 0 0.0487999 1.19852 0 0.0707626 1.19979 0 0.00230385 1.17576 0 0.114183 1.18186 0 0.0117963 1.17624 0 0.104577 1.18137 0 0.0275285 1.17708 0 0.0887034 1.18052 0 0.0473952 1.17819 0 0.0687411 1.1794 0 0.182636 1.6051 0 0.357451 1.60793 0 0.197418 1.60556 0 0.342443 1.60791 0 0.221957 1.60624 0 0.317623 1.60779 0 0.252999 1.60693 0 0.286391 1.60747 0 0.155575 1.41779 0 0.304873 1.42001 0 0.168154 1.41821 0 0.291989 1.42006 0 0.189048 1.41881 0 0.270716 1.42004 0 0.215503 1.41941 0 0.244004 1.41984 0 0.180306 1.58873 0 0.352929 1.59152 0 0.194899 1.58919 0 0.338105 1.59151 0 0.219125 1.58986 0 0.31359 1.59139 0 0.249774 1.59054 0 0.282746 1.59108 0 0.157812 1.43301 0 0.309221 1.43528 0 0.170574 1.43343 0 0.296162 1.43532 0 0.191769 1.43404 0 0.274596 1.43529 0 0.218604 1.43464 0 0.24751 1.43508 0 0.176438 1.56164 0 0.34542 1.56437 0 0.190717 1.5621 0 0.330899 1.56436 0 0.214424 1.56276 0 0.306891 1.56425 0 0.244419 1.56343 0 0.276693 1.56396 0 0.161564 1.45865 0 0.316514 1.46102 0 0.174632 1.45908 0 0.303161 1.46105 0 0.196334 1.4597 0 0.281103 1.46101 0 0.223806 1.46032 0 0.25339 1.46078 0 0.171562 1.52767 0 0.335948 1.53028 0 0.185445 1.52811 0 0.32181 1.53029 0 0.208495 1.52876 0 0.298441 1.5302 0 0.237663 1.52942 0 0.269057 1.52992 0 0.166362 1.49166 0 0.325841 1.49415 0 0.179821 1.49209 0 0.312111 1.49416 0 0.20217 1.49273 0 0.289424 1.4941 0 0.230456 1.49337 0 0.260909 1.49384 0 0.00299538 1.40223 0 0.148441 1.41027 0 0.0153397 1.40311 0 0.135978 1.40979 0 0.0358049 1.4045 0 0.115366 1.40891 0 0.0616528 1.4061 0 0.0894184 1.40764 0 0.00254353 1.24792 0 0.125733 1.25488 0 0.0130207 1.2486 0 0.115181 1.25441 0 0.0303747 1.24971 0 0.0977345 1.25357 0 0.0522713 1.25105 0 0.0757754 1.25241 0 0.00295376 1.38742 0 0.146326 1.39538 0 0.0151258 1.38829 0 0.134043 1.39491 0 0.0353032 1.38966 0 0.113727 1.39403 0 0.060784 1.39125 0 0.0881523 1.39278 0 0.00257828 1.25908 0 0.127445 1.26614 0 0.0131986 1.25979 0 0.116751 1.26567 0 0.03079 1.26093 0 0.0990684 1.26484 0 0.052986 1.2623 0 0.0768108 1.26367 0 0.00288584 1.36344 0 0.142879 1.37126 0 0.0147768 1.3643 0 0.130888 1.37079 0 0.0344846 1.36564 0 0.111055 1.36993 0 0.0593672 1.36719 0 0.0860881 1.3687 0 0.00263763 1.27852 0 0.13039 1.28573 0 0.0135028 1.27926 0 0.11945 1.28527 0 0.0315007 1.28045 0 0.10136 1.28444 0 0.0542107 1.28186 0 0.0785874 1.28326 0 0.00280222 1.3343 0 0.138648 1.34193 0 0.0143474 1.33512 0 0.127015 1.34146 0 0.0334778 1.33641 0 0.107774 1.34061 0 0.0576253 1.33793 0 0.0835517 1.3394 0 0.00271546 1.30459 0 0.134281 1.31201 0 0.013902 1.30537 0 0.123015 1.31155 0 0.0324346 1.30662 0 0.104384 1.31071 0 0.0558225 1.30808 0 0.0809292 1.30952 0 0.00352786 1.59626 0 0.175468 1.60486 0 0.0180755 1.59721 0 0.160716 1.60434 0 0.042222 1.59868 0 0.136315 1.60339 0 0.072761 1.60039 0 0.105603 1.60204 0 0.00301574 1.4095 0 0.149476 1.41757 0 0.0154443 1.41039 0 0.136926 1.41709 0 0.0360504 1.41178 0 0.116168 1.41621 0 0.0620779 1.4134 0 0.0900379 1.41494 0 0.00348347 1.57991 0 0.17323 1.58849 0 0.0178475 1.58085 0 0.158667 1.58797 0 0.041688 1.58232 0 0.134578 1.58702 0 0.0718379 1.58403 0 0.10426 1.58567 0 0.00305798 1.42464 0 0.151625 1.43279 0 0.0156614 1.42554 0 0.138892 1.43231 0 0.0365598 1.42695 0 0.117833 1.43142 0 0.0629601 1.42858 0 0.0913239 1.43014 0 0.00340998 1.55286 0 0.169514 1.56141 0 0.0174701 1.5538 0 0.155265 1.56089 0 0.0408034 1.55527 0 0.131696 1.55995 0 0.0703079 1.55697 0 0.102032 1.55861 0 0.00312878 1.45018 0 0.155229 1.45843 0 0.0160253 1.45109 0 0.14219 1.45794 0 0.0374138 1.45251 0 0.120625 1.45704 0 0.0644392 1.45416 0 0.09348 1.45574 0 0.00331761 1.51896 0 0.164831 1.52744 0 0.0169956 1.51989 0 0.150978 1.52693 0 0.0396906 1.52135 0 0.128065 1.526 0 0.068382 1.52305 0 0.0992267 1.52467 0 0.00321934 1.48305 0 0.159837 1.49143 0 0.0164907 1.48398 0 0.146407 1.49093 0 0.0385059 1.48542 0 0.124195 1.49001 0 0.0663306 1.4871 0 0.0962372 1.4887 0 0.549752 1.6045 0 0.728689 1.59515 0 0.564973 1.60394 0 0.71344 1.59618 0 0.590212 1.60291 0 0.688166 1.5978 0 0.62208 1.60144 0 0.656275 1.59966 0 0.471245 1.41536 0 0.626956 1.40446 0 0.484481 1.41468 0 0.613696 1.40564 0 0.50644 1.41345 0 0.591707 1.40748 0 0.534179 1.41171 0 0.563948 1.40963 0 0.542981 1.58802 0 0.719896 1.57856 0 0.55803 1.58745 0 0.70482 1.5796 0 0.582983 1.58641 0 0.679832 1.58123 0 0.614492 1.58492 0 0.6483 1.58312 0 0.477727 1.43077 0 0.635345 1.42003 0 0.491126 1.4301 0 0.621922 1.42119 0 0.513354 1.42889 0 0.599663 1.42301 0 0.541432 1.42718 0 0.571564 1.42513 0 0.531749 1.56073 0 0.70532 1.55109 0 0.546512 1.56014 0 0.69053 1.55215 0 0.570992 1.55908 0 0.666014 1.55381 0 0.601906 1.55756 0 0.635077 1.55572 0 0.4886 1.45672 0 0.64942 1.44624 0 0.502273 1.45607 0 0.635721 1.44738 0 0.524953 1.45489 0 0.61301 1.44916 0 0.5536 1.45323 0 0.584342 1.45123 0 0.517596 1.52645 0 0.68697 1.51657 0 0.532 1.52585 0 0.67254 1.51765 0 0.555888 1.52475 0 0.648618 1.51935 0 0.586056 1.5232 0 0.618427 1.52131 0 0.502511 1.49008 0 0.667429 1.47991 0 0.516534 1.48946 0 0.65338 1.48102 0 0.539793 1.48832 0 0.630088 1.48276 0 0.569168 1.48672 0 0.600691 1.48477 0 0.309005 1.41263 0 0.461741 1.40828 0 0.32186 1.41251 0 0.448605 1.4089 0 0.343238 1.41221 0 0.426874 1.40982 0 0.370337 1.41164 0 0.399537 1.41081 0 0.262384 1.25702 0 0.394308 1.25084 0 0.273417 1.25681 0 0.382907 1.25166 0 0.2918 1.25633 0 0.364063 1.25292 0 0.31516 1.25548 0 0.340392 1.25429 0 0.304644 1.39769 0 0.455443 1.3932 0 0.317329 1.39756 0 0.442467 1.39384 0 0.338427 1.39724 0 0.421005 1.39478 0 0.365178 1.39665 0 0.394008 1.3958 0 0.265873 1.26824 0 0.399369 1.26223 0 0.277042 1.26804 0 0.387836 1.26304 0 0.29565 1.26757 0 0.368773 1.26426 0 0.319292 1.26675 0 0.344824 1.26559 0 0.297542 1.37348 0 0.445184 1.36877 0 0.309949 1.37334 0 0.43247 1.36943 0 0.330591 1.373 0 0.411445 1.37042 0 0.356774 1.37238 0 0.385003 1.37147 0 0.271889 1.2878 0 0.408087 1.28208 0 0.283293 1.28761 0 0.396328 1.28286 0 0.302288 1.28717 0 0.376888 1.28402 0 0.326414 1.28639 0 0.352462 1.28529 0 0.288834 1.34406 0 0.432601 1.33904 0 0.300901 1.3439 0 0.42021 1.33973 0 0.320984 1.34353 0 0.399721 1.34077 0 0.34647 1.34286 0 0.37396 1.3419 0 0.279862 1.31409 0 0.419627 1.30871 0 0.291578 1.31391 0 0.40757 1.30945 0 0.311085 1.3135 0 0.387635 1.31055 0 0.335852 1.31278 0 0.362579 1.31175 0 0.364743 1.60793 0 0.542367 1.60476 0 0.379783 1.60789 0 0.527159 1.60526 0 0.404749 1.60772 0 0.501983 1.60599 0 0.436324 1.60735 0 0.470266 1.60675 0 0.31114 1.41997 0 0.464825 1.41567 0 0.324078 1.41985 0 0.451609 1.41629 0 0.345593 1.41955 0 0.429748 1.4172 0 0.372863 1.419 0 0.402244 1.41818 0 0.360133 1.59152 0 0.53568 1.58828 0 0.374991 1.59147 0 0.520646 1.58879 0 0.39966 1.5913 0 0.495759 1.58953 0 0.430862 1.59092 0 0.464408 1.5903 0 0.315573 1.43524 0 0.471227 1.43108 0 0.328684 1.43513 0 0.457848 1.43168 0 0.350484 1.43485 0 0.435715 1.43257 0 0.378109 1.43432 0 0.407864 1.43352 0 0.352477 1.56435 0 0.524587 1.56099 0 0.367035 1.5643 0 0.50984 1.56151 0 0.391208 1.56411 0 0.485429 1.56228 0 0.421793 1.56371 0 0.454684 1.56307 0 0.323008 1.46099 0 0.481968 1.45702 0 0.33641 1.46089 0 0.468314 1.4576 0 0.358687 1.46063 0 0.445724 1.45846 0 0.386907 1.46013 0 0.417292 1.45937 0 0.34282 1.53027 0 0.510608 1.52673 0 0.356998 1.5302 0 0.496221 1.52727 0 0.38055 1.52999 0 0.472409 1.52806 0 0.410357 1.52956 0 0.442425 1.52888 0 0.332516 1.49412 0 0.495708 1.49037 0 0.346291 1.49404 0 0.481703 1.49093 0 0.369179 1.49381 0 0.458527 1.49176 0 0.39816 1.49334 0 0.429352 1.49262 0 0.238162 2.00391 0 0.464663 2.00641 0 0.257385 2.00431 0 0.4453 2.00639 0 0.289271 2.0049 0 0.413239 2.00627 0 0.32956 2.0055 0 0.372832 2.00598 0 0.211775 1.81275 0 0.413811 1.81567 0 0.228898 1.8132 0 0.396517 1.81562 0 0.257311 1.81387 0 0.36789 1.81547 0 0.293229 1.81456 0 0.331828 1.81512 0 0.235924 1.98764 0 0.460354 1.99019 0 0.254969 1.98805 0 0.441167 1.99016 0 0.286562 1.98864 0 0.409396 1.99004 0 0.32648 1.98926 0 0.369357 1.98975 0 0.214037 1.82905 0 0.418176 1.83195 0 0.23134 1.8295 0 0.400704 1.83191 0 0.260053 1.83017 0 0.371782 1.83176 0 0.296347 1.83086 0 0.335347 1.83141 0 0.232213 1.96068 0 0.453207 1.9633 0 0.250963 1.96109 0 0.434311 1.96327 0 0.282068 1.9617 0 0.403023 1.96314 0 0.321374 1.96233 0 0.363594 1.96284 0 0.217778 1.85606 0 0.425391 1.85892 0 0.23538 1.85651 0 0.407626 1.85888 0 0.264586 1.85716 0 0.378217 1.85873 0 0.301501 1.85784 0 0.341165 1.85839 0 0.227525 1.92664 0 0.444176 1.92935 0 0.245902 1.92707 0 0.425647 1.92932 0 0.276391 1.92769 0 0.394969 1.92918 0 0.314921 1.92834 0 0.356311 1.92886 0 0.222487 1.89013 0 0.434469 1.89292 0 0.240464 1.89056 0 0.416335 1.89288 0 0.27029 1.89121 0 0.386312 1.89274 0 0.307985 1.89187 0 0.348484 1.89241 0 0.00406912 1.79625 0 0.202413 1.8046 0 0.0208502 1.79716 0 0.185405 1.80409 0 0.048708 1.79859 0 0.157265 1.80316 0 0.0839445 1.80024 0 0.121837 1.80184 0 0.0035494 1.60421 0 0.176553 1.61281 0 0.0181861 1.60515 0 0.16171 1.61229 0 0.042481 1.60662 0 0.137157 1.61134 0 0.0732087 1.60833 0 0.106254 1.60998 0 0.00402494 1.77989 0 0.200234 1.78828 0 0.0206239 1.78081 0 0.183407 1.78777 0 0.0481799 1.78224 0 0.155568 1.78683 0 0.0830356 1.7839 0 0.12052 1.78551 0 0.00359378 1.62057 0 0.178784 1.62918 0 0.0184138 1.62151 0 0.163752 1.62865 0 0.0430143 1.62298 0 0.138888 1.6277 0 0.0741299 1.6247 0 0.107594 1.62634 0 0.00395169 1.75278 0 0.196614 1.76124 0 0.0202487 1.7537 0 0.180089 1.76072 0 0.047304 1.75515 0 0.15275 1.75978 0 0.0815276 1.75683 0 0.118334 1.75844 0 0.00366727 1.64768 0 0.182467 1.65629 0 0.0187908 1.64862 0 0.167126 1.65576 0 0.0438967 1.65009 0 0.141749 1.65481 0 0.0756535 1.6518 0 0.109809 1.65345 0 0.0038592 1.71857 0 0.19203 1.7271 0 0.0197748 1.7195 0 0.175888 1.72658 0 0.0461972 1.72096 0 0.149183 1.72563 0 0.0796208 1.72265 0 0.115569 1.72428 0 0.00375992 1.68189 0 0.187093 1.69047 0 0.019266 1.68283 0 0.171364 1.68995 0 0.0450079 1.68429 0 0.145344 1.68899 0 0.0775707 1.686 0 0.112593 1.68764 0 0.00460791 1.99623 0 0.228837 2.0037 0 0.0236076 1.99705 0 0.209638 2.00325 0 0.0551366 1.99834 0 0.177861 2.00243 0 0.0949956 1.99982 0 0.137833 2.00125 0 0.00409056 1.8042 0 0.20347 1.81251 0 0.02096 1.8051 0 0.186374 1.812 0 0.0489642 1.80652 0 0.158088 1.81108 0 0.0843853 1.80817 0 0.122476 1.80976 0 0.00456391 1.97987 0 0.226686 1.98743 0 0.0233825 1.9807 0 0.207665 1.98697 0 0.0546121 1.982 0 0.176183 1.98614 0 0.0940945 1.9835 0 0.13653 1.98495 0 0.00413472 1.82056 0 0.205644 1.82882 0 0.0211861 1.82146 0 0.188368 1.82831 0 0.0494916 1.82287 0 0.159782 1.82739 0 0.0852928 1.82451 0 0.12379 1.82609 0 0.00449098 1.95276 0 0.223118 1.96046 0 0.0230093 1.95361 0 0.204392 1.95999 0 0.0537425 1.95493 0 0.173401 1.95914 0 0.0926004 1.95645 0 0.134368 1.95793 0 0.00420786 1.84767 0 0.209241 1.85583 0 0.0215605 1.84856 0 0.191666 1.85533 0 0.050365 1.84995 0 0.162583 1.85443 0 0.0867949 1.85157 0 0.125966 1.85313 0 0.0043989 1.91856 0 0.218611 1.92642 0 0.0225382 1.91942 0 0.200258 1.92594 0 0.0526444 1.92076 0 0.169887 1.92507 0 0.0907134 1.92232 0 0.131638 1.92383 0 0.00430008 1.88187 0 0.213768 1.8899 0 0.0220325 1.88275 0 0.195817 1.88941 0 0.0514655 1.88412 0 0.166111 1.88852 0 0.0886872 1.88572 0 0.128705 1.88725 0 0.292637 2.40112 0 0.569521 2.40203 0 0.316183 2.40135 0 0.545895 2.4021 0 0.35522 2.40166 0 0.506757 2.40216 0 0.404508 2.40195 0 0.457402 2.40212 0 0.26653 2.21049 0 0.519268 2.21222 0 0.288004 2.2108 0 0.497685 2.21224 0 0.323614 2.21126 0 0.461939 2.21221 0 0.368589 2.21171 0 0.416872 2.21204 0 0.290415 2.38488 0 0.565244 2.38586 0 0.313785 2.38512 0 0.541792 2.38593 0 0.352531 2.38544 0 0.502943 2.38598 0 0.401451 2.38574 0 0.453953 2.38593 0 0.268757 2.22673 0 0.523555 2.2284 0 0.290408 2.22704 0 0.501798 2.22842 0 0.32631 2.22748 0 0.465762 2.22839 0 0.371653 2.22792 0 0.42033 2.22824 0 0.286733 2.35798 0 0.558156 2.35907 0 0.309811 2.35822 0 0.534992 2.35913 0 0.348073 2.35857 0 0.496622 2.35917 0 0.396385 2.35889 0 0.448236 2.3591 0 0.272446 2.25365 0 0.530656 2.2552 0 0.29439 2.25394 0 0.50861 2.25523 0 0.330777 2.25437 0 0.472095 2.25522 0 0.376729 2.25478 0 0.426057 2.25508 0 0.282085 2.32402 0 0.549209 2.32527 0 0.304794 2.32428 0 0.526409 2.32532 0 0.342446 2.32465 0 0.488642 2.32534 0 0.38999 2.32501 0 0.441021 2.32525 0 0.277099 2.28761 0 0.53961 2.28901 0 0.299411 2.28789 0 0.5172 2.28905 0 0.336409 2.28828 0 0.480082 2.28905 0 0.38313 2.28867 0 0.433279 2.28894 0 0.0051446 2.1962 0 0.255071 2.20244 0 0.0263533 2.1969 0 0.233702 2.20207 0 0.0615342 2.19799 0 0.19832 2.2014 0 0.105986 2.19924 0 0.153732 2.20043 0 0.00462926 2.00417 0 0.229881 2.0116 0 0.0237168 2.00499 0 0.210596 2.01115 0 0.0553911 2.00627 0 0.178675 2.01033 0 0.0954329 2.00774 0 0.138466 2.00916 0 0.00510077 2.17984 0 0.252929 2.18619 0 0.026129 2.18055 0 0.231737 2.18581 0 0.0610117 2.18165 0 0.196649 2.18513 0 0.105089 2.18293 0 0.152434 2.18414 0 0.00467323 2.02053 0 0.232032 2.02787 0 0.0239418 2.02134 0 0.212568 2.02743 0 0.0559154 2.0226 0 0.180352 2.02662 0 0.0963336 2.02406 0 0.139769 2.02546 0 0.0050281 2.15273 0 0.249378 2.15926 0 0.0257573 2.15346 0 0.228479 2.15887 0 0.0601455 2.15459 0 0.19388 2.15816 0 0.103601 2.1559 0 0.150281 2.15714 0 0.00474608 2.04764 0 0.235593 2.05482 0 0.0243145 2.04843 0 0.215835 2.05439 0 0.0567837 2.04967 0 0.183129 2.0536 0 0.0978254 2.0511 0 0.141927 2.05247 0 0.00493637 2.11853 0 0.244894 2.12527 0 0.025288 2.11928 0 0.224367 2.12487 0 0.0590521 2.12044 0 0.190383 2.12414 0 0.101722 2.12179 0 0.147564 2.12308 0 0.00483793 2.08185 0 0.240083 2.08882 0 0.0247844 2.08262 0 0.219953 2.0884 0 0.0578786 2.08382 0 0.18663 2.08764 0 0.0997064 2.08521 0 0.144648 2.08655 0 0.00567946 2.39617 0 0.281211 2.40101 0 0.0290895 2.39673 0 0.257679 2.40074 0 0.0679096 2.39759 0 0.218706 2.40024 0 0.116939 2.39858 0 0.169574 2.3995 0 0.00516588 2.20414 0 0.256111 2.21032 0 0.0264621 2.20483 0 0.234655 2.20996 0 0.0617878 2.20591 0 0.199131 2.2093 0 0.106422 2.20715 0 0.154362 2.20833 0 0.00563576 2.37981 0 0.279075 2.38476 0 0.028866 2.38038 0 0.25572 2.38449 0 0.0673888 2.38126 0 0.217041 2.38397 0 0.116044 2.38227 0 0.16828 2.38321 0 0.00520969 2.2205 0 0.258252 2.22657 0 0.0266863 2.22118 0 0.236619 2.22622 0 0.0623101 2.22224 0 0.200801 2.22557 0 0.107319 2.22346 0 0.15566 2.22462 0 0.00556334 2.3527 0 0.275535 2.35785 0 0.0284954 2.35329 0 0.252473 2.35756 0 0.0665255 2.3542 0 0.21428 2.35702 0 0.114561 2.35525 0 0.166135 2.35623 0 0.00528228 2.24761 0 0.261799 2.25349 0 0.0270576 2.24827 0 0.239873 2.25315 0 0.0631753 2.2493 0 0.203567 2.25252 0 0.108805 2.25049 0 0.15781 2.25161 0 0.00547191 2.3185 0 0.271067 2.32388 0 0.0280277 2.31911 0 0.248374 2.32358 0 0.0654357 2.32006 0 0.210795 2.32301 0 0.112688 2.32115 0 0.163427 2.32218 0 0.00537381 2.28182 0 0.266272 2.28746 0 0.0275258 2.28245 0 0.243976 2.28714 0 0.0642663 2.28345 0 0.207056 2.28654 0 0.11068 2.28459 0 0.160521 2.28566 0 0.870153 2.39871 0 1.14804 2.39163 0 0.893828 2.39826 0 1.12437 2.39238 0 0.933059 2.39745 0 1.08514 2.39357 0 0.982561 2.39631 0 1.03565 2.39496 0 0.794105 2.20919 0 1.04836 2.20181 0 0.815761 2.20874 0 1.0267 2.20261 0 0.85165 2.20791 0 0.990805 2.20387 0 0.89694 2.20674 0 0.945512 2.20533 0 0.86368 2.38257 0 1.13955 2.37546 0 0.887182 2.38211 0 1.11605 2.37622 0 0.926129 2.3813 0 1.07711 2.37741 0 0.975272 2.38016 0 1.02797 2.37881 0 0.800591 2.22535 0 1.05686 2.21799 0 0.822419 2.22489 0 1.03503 2.21879 0 0.858594 2.22406 0 0.99885 2.22004 0 0.904242 2.2229 0 0.953199 2.22149 0 0.852951 2.35582 0 1.12549 2.34867 0 0.876168 2.35536 0 1.10227 2.34943 0 0.914644 2.35455 0 1.0638 2.35064 0 0.963192 2.35341 0 1.01526 2.35204 0 0.811335 2.25211 0 1.07094 2.2448 0 0.833448 2.25165 0 1.04883 2.24559 0 0.870095 2.25083 0 1.01218 2.24683 0 0.916338 2.24967 0 0.965932 2.24827 0 0.839411 2.32207 0 1.10774 2.31486 0 0.862269 2.32161 0 1.08488 2.31564 0 0.900149 2.32079 0 1.047 2.31685 0 0.947947 2.31965 0 0.999208 2.31827 0 0.824886 2.28587 0 1.0887 2.27861 0 0.847358 2.28541 0 1.06623 2.27939 0 0.8846 2.28459 0 1.02899 2.28062 0 0.931594 2.28344 0 0.981992 2.28205 0 0.527625 2.20435 0 0.780486 2.20156 0 0.549135 2.20428 0 0.758919 2.20197 0 0.584795 2.2041 0 0.723187 2.20258 0 0.629813 2.20375 0 0.67812 2.20322 0 0.476197 2.01428 0 0.705154 2.01168 0 0.49566 2.01425 0 0.685614 2.01209 0 0.527932 2.01412 0 0.653245 2.0127 0 0.568685 2.01382 0 0.612426 2.01332 0 0.523252 2.18817 0 0.774081 2.1854 0 0.544588 2.18811 0 0.752686 2.18581 0 0.57996 2.18793 0 0.71724 2.18642 0 0.624616 2.18759 0 0.672534 2.18706 0 0.480588 2.03049 0 0.711587 2.02788 0 0.500226 2.03046 0 0.691873 2.02829 0 0.532788 2.03033 0 0.659217 2.0289 0 0.573905 2.03002 0 0.618036 2.02952 0 0.516003 2.16136 0 0.763463 2.15862 0 0.53705 2.1613 0 0.742353 2.15903 0 0.571944 2.16113 0 0.707382 2.15964 0 0.615999 2.1608 0 0.663274 2.16027 0 0.48786 2.05734 0 0.72224 2.05472 0 0.507787 2.05731 0 0.702239 2.05513 0 0.540828 2.05717 0 0.669107 2.05573 0 0.582548 2.05686 0 0.627325 2.05636 0 0.50685 2.12752 0 0.750057 2.12482 0 0.527534 2.12747 0 0.729308 2.12523 0 0.561825 2.12731 0 0.694935 2.12584 0 0.605121 2.12698 0 0.651583 2.12647 0 0.497027 2.09121 0 0.735669 2.08856 0 0.51732 2.09117 0 0.715307 2.08897 0 0.550964 2.09102 0 0.681576 2.08957 0 0.593445 2.09071 0 0.639036 2.0902 0 0.580991 2.40199 0 0.858663 2.39892 0 0.604626 2.40188 0 0.834991 2.39933 0 0.643801 2.40163 0 0.795769 2.39995 0 0.693247 2.40121 0 0.746292 2.40062 0 0.529747 2.2122 0 0.783595 2.2094 0 0.551342 2.21213 0 0.761943 2.20981 0 0.587141 2.21195 0 0.726073 2.21042 0 0.632336 2.21159 0 0.680831 2.21106 0 0.57663 2.38582 0 0.852273 2.38278 0 0.600091 2.38571 0 0.828773 2.38319 0 0.638978 2.38547 0 0.789836 2.38381 0 0.688062 2.38506 0 0.74072 2.38448 0 0.534118 2.22837 0 0.789997 2.22556 0 0.555887 2.2283 0 0.768174 2.22596 0 0.591974 2.22811 0 0.732018 2.22657 0 0.637531 2.22775 0 0.686414 2.22722 0 0.569402 2.35903 0 0.841682 2.35603 0 0.592575 2.35893 0 0.818467 2.35644 0 0.630986 2.3587 0 0.780004 2.35705 0 0.67947 2.35829 0 0.731485 2.35772 0 0.541359 2.25517 0 0.800603 2.25232 0 0.563416 2.25509 0 0.778494 2.25273 0 0.59998 2.2549 0 0.741865 2.25334 0 0.646137 2.25453 0 0.695663 2.25398 0 0.560278 2.32523 0 0.828317 2.32228 0 0.583088 2.32514 0 0.805462 2.32269 0 0.620898 2.32492 0 0.767595 2.3233 0 0.668625 2.32452 0 0.71983 2.32396 0 0.55049 2.28898 0 0.813979 2.28608 0 0.572911 2.28889 0 0.79151 2.28649 0 0.610076 2.28869 0 0.754283 2.2871 0 0.656991 2.28831 0 0.707327 2.28775 0 1.1873 1.98171 0 1.41454 1.96342 0 1.20671 1.98035 0 1.39524 1.96517 0 1.23886 1.97802 0 1.36324 1.968 0 1.27939 1.97492 0 1.3228 1.97143 0 1.06074 1.78915 0 1.26406 1.7692 0 1.07813 1.78767 0 1.24681 1.77111 0 1.10691 1.78512 0 1.21819 1.7742 0 1.14318 1.78175 0 1.18203 1.77794 0 1.17656 1.96537 0 1.40177 1.94694 0 1.1958 1.964 0 1.38265 1.94871 0 1.22767 1.96164 0 1.35093 1.95156 0 1.26783 1.95853 0 1.31086 1.95501 0 1.07158 1.80563 0 1.27695 1.78582 0 1.08913 1.80416 0 1.25952 1.78772 0 1.1182 1.80163 0 1.23061 1.79079 0 1.15484 1.79828 0 1.19408 1.7945 0 1.15875 1.93826 0 1.3806 1.91961 0 1.17771 1.93688 0 1.36176 1.9214 0 1.2091 1.93449 0 1.33052 1.92428 0 1.24867 1.93134 0 1.29105 1.92778 0 1.0895 1.83289 0 1.29826 1.81333 0 1.10735 1.83144 0 1.28055 1.81521 0 1.13689 1.82895 0 1.25115 1.81824 0 1.17413 1.82564 0 1.21402 1.8219 0 1.13625 1.90402 0 1.35385 1.88508 0 1.15485 1.90261 0 1.33538 1.8869 0 1.18564 1.9002 0 1.30473 1.88983 0 1.22445 1.89699 0 1.26602 1.89338 0 1.11208 1.86725 0 1.32511 1.84798 0 1.13029 1.86581 0 1.30703 1.84983 0 1.16044 1.86336 0 1.27703 1.85282 0 1.19844 1.8601 0 1.23914 1.85642 0 0.84354 1.79604 0 1.04708 1.78186 0 0.860903 1.79505 0 1.02978 1.78328 0 0.889669 1.79332 0 1.00108 1.78556 0 0.925952 1.79098 0 0.96484 1.78827 0 0.740394 1.60268 0 0.919905 1.58709 0 0.755722 1.60159 0 0.904655 1.58866 0 0.78111 1.59969 0 0.879363 1.59116 0 0.81312 1.59711 0 0.847417 1.59413 0 0.834814 1.77965 0 1.03632 1.76536 0 0.852004 1.77865 0 1.01919 1.7668 0 0.880483 1.77691 0 0.990775 1.76909 0 0.916403 1.77455 0 0.954902 1.77182 0 0.749252 1.61925 0 0.930819 1.6038 0 0.764753 1.61817 0 0.915392 1.60535 0 0.790429 1.61628 0 0.889808 1.60783 0 0.822805 1.61373 0 0.857495 1.61078 0 0.820334 1.75247 0 1.01846 1.738 0 0.837236 1.75146 0 1.00161 1.73945 0 0.865239 1.74969 0 0.97368 1.74177 0 0.900557 1.7473 0 0.93841 1.74454 0 0.763898 1.64667 0 0.948869 1.63143 0 0.779686 1.6456 0 0.933149 1.63296 0 0.80584 1.64374 0 0.907082 1.6354 0 0.83882 1.64122 0 0.87416 1.63831 0 0.80202 1.71811 0 0.99587 1.7034 0 0.81856 1.71708 0 0.97939 1.70488 0 0.845962 1.71528 0 0.952063 1.70724 0 0.88052 1.71285 0 0.917556 1.71005 0 0.782323 1.68118 0 0.971582 1.6662 0 0.798474 1.68013 0 0.955495 1.66771 0 0.82523 1.6783 0 0.928819 1.67011 0 0.858972 1.67583 0 0.895131 1.67297 0 0.94952 1.99539 0 1.17787 1.98236 0 0.968995 1.99447 0 1.15845 1.98367 0 1.00126 1.99288 0 1.12624 1.98575 0 1.04196 1.99073 0 1.08559 1.98824 0 0.847771 1.80399 0 1.05231 1.78986 0 0.865218 1.803 0 1.03491 1.79128 0 0.894124 1.80128 0 1.00607 1.79354 0 0.930583 1.79894 0 0.96966 1.79624 0 0.940887 1.97913 0 1.16722 1.96602 0 0.96019 1.97821 0 1.14797 1.96734 0 0.992171 1.97661 0 1.11605 1.96944 0 1.03251 1.97444 0 1.07575 1.97194 0 0.856482 1.82035 0 1.06305 1.80633 0 0.874102 1.81937 0 1.04549 1.80774 0 0.903295 1.81766 0 1.01636 1.80999 0 0.940116 1.81535 0 0.979582 1.81267 0 0.92657 1.95218 0 1.14955 1.93892 0 0.945587 1.95125 0 1.13058 1.94025 0 0.977095 1.94963 0 1.09914 1.94238 0 1.01684 1.94744 0 1.05944 1.94491 0 0.870896 1.84745 0 1.08084 1.83359 0 0.888803 1.84648 0 1.06298 1.83498 0 0.918472 1.84479 0 1.03338 1.8372 0 0.955893 1.8425 0 0.996003 1.83985 0 0.908481 1.91814 0 1.12722 1.90469 0 0.927138 1.9172 0 1.10862 1.90604 0 0.958048 1.91556 0 1.07777 1.9082 0 0.997035 1.91333 0 1.03883 1.91077 0 0.88905 1.88158 0 1.10324 1.86793 0 0.907319 1.88063 0 1.08502 1.8693 0 0.937587 1.87896 0 1.05482 1.87149 0 0.975764 1.87671 0 1.01669 1.8741 0 1.44849 2.37959 0 1.72504 2.36442 0 1.4721 2.37845 0 1.70153 2.36587 0 1.5112 2.3765 0 1.66255 2.3682 0 1.5605 2.37392 0 1.61333 2.37103 0 1.3233 2.18881 0 1.57621 2.17217 0 1.34489 2.18757 0 1.55471 2.17376 0 1.38066 2.18544 0 1.51908 2.17633 0 1.42576 2.18262 0 1.47407 2.17944 0 1.43783 2.36334 0 1.71237 2.34805 0 1.46126 2.36219 0 1.68903 2.3495 0 1.50008 2.36022 0 1.65033 2.35185 0 1.54902 2.35763 0 1.60147 2.35471 0 1.33397 2.20508 0 1.58889 2.18856 0 1.35574 2.20384 0 1.56723 2.19014 0 1.39179 2.20172 0 1.53131 2.19268 0 1.43724 2.19893 0 1.48594 2.19577 0 1.42017 2.33641 0 1.69136 2.32091 0 1.44331 2.33525 0 1.66831 2.32239 0 1.48166 2.33326 0 1.63008 2.32477 0 1.53001 2.33063 0 1.58182 2.32767 0 1.35166 2.23202 0 1.60992 2.21571 0 1.37371 2.2308 0 1.58797 2.21727 0 1.41023 2.22871 0 1.55157 2.21978 0 1.45628 2.22594 0 1.50561 2.22283 0 1.39787 2.30244 0 1.66486 2.28668 0 1.42066 2.30126 0 1.64216 2.28818 0 1.45842 2.29923 0 1.60454 2.2906 0 1.50602 2.29656 0 1.55702 2.29355 0 1.37396 2.266 0 1.63643 2.24996 0 1.39637 2.2648 0 1.61412 2.25149 0 1.43348 2.26274 0 1.57713 2.25396 0 1.48028 2.26002 0 1.53042 2.25696 0 1.0547 2.19355 0 1.30767 2.18151 0 1.07628 2.1927 0 1.28615 2.18271 0 1.11202 2.19122 0 1.25047 2.18463 0 1.1571 2.18922 0 1.20543 2.18692 0 0.953708 2.00327 0 1.18304 1.99029 0 0.973267 2.00236 0 1.16353 1.99159 0 1.00567 2.00077 0 1.13119 1.99367 0 1.04655 1.99863 0 1.09036 1.99615 0 1.04612 2.17737 0 1.29708 2.16525 0 1.06752 2.17651 0 1.27572 2.16646 0 1.10298 2.17502 0 1.24033 2.16839 0 1.1477 2.17301 0 1.19565 2.1707 0 0.962334 2.01952 0 1.19369 2.00662 0 0.982065 2.01861 0 1.17401 2.00791 0 1.01475 2.01703 0 1.14138 2.00997 0 1.05599 2.0149 0 1.10019 2.01243 0 1.03188 2.15054 0 1.27951 2.13829 0 1.053 2.14968 0 1.25844 2.13952 0 1.08799 2.14817 0 1.22352 2.14147 0 1.13212 2.14614 0 1.17943 2.1438 0 0.976616 2.04641 0 1.21131 2.03365 0 0.996632 2.04552 0 1.19135 2.03493 0 1.02979 2.04396 0 1.15825 2.03697 0 1.07162 2.04184 0 1.11646 2.03941 0 1.01391 2.11667 0 1.25733 2.10426 0 1.03467 2.1158 0 1.23662 2.1055 0 1.06906 2.11427 0 1.20229 2.10748 0 1.11245 2.11222 0 1.15895 2.10985 0 0.994621 2.08033 0 1.23353 2.06774 0 1.015 2.07944 0 1.21321 2.069 0 1.04875 2.0779 0 1.17951 2.07101 0 1.09133 2.07582 0 1.13697 2.07341 0 1.15952 2.39125 0 1.43703 2.38013 0 1.18319 2.39046 0 1.41342 2.38123 0 1.22239 2.38908 0 1.37427 2.38299 0 1.27185 2.38722 0 1.32486 2.3851 0 1.05887 2.20141 0 1.31281 2.18941 0 1.08053 2.20056 0 1.29121 2.1906 0 1.11641 2.19908 0 1.25539 2.19251 0 1.16166 2.19709 0 1.21018 2.1948 0 1.15095 2.37508 0 1.42645 2.36389 0 1.17445 2.37428 0 1.40301 2.36499 0 1.21337 2.37289 0 1.36415 2.36677 0 1.26247 2.37103 0 1.3151 2.36889 0 1.06745 2.21759 0 1.32341 2.20566 0 1.08928 2.21675 0 1.30163 2.20685 0 1.12544 2.21528 0 1.26553 2.20875 0 1.17106 2.2133 0 1.21996 2.21102 0 1.13675 2.34829 0 1.40893 2.33697 0 1.15996 2.34748 0 1.38577 2.33809 0 1.19841 2.34608 0 1.34738 2.33988 0 1.24692 2.34419 0 1.29891 2.34203 0 1.08167 2.2444 0 1.34095 2.2326 0 1.10378 2.24356 0 1.31889 2.23377 0 1.14042 2.24211 0 1.28232 2.23565 0 1.18662 2.24015 0 1.23616 2.23789 0 1.11883 2.31448 0 1.38681 2.303 0 1.14168 2.31366 0 1.36401 2.30414 0 1.17954 2.31224 0 1.32621 2.30596 0 1.2273 2.31033 0 1.27849 2.30814 0 1.09961 2.27822 0 1.36308 2.26657 0 1.12207 2.27739 0 1.34066 2.26773 0 1.1593 2.27595 0 1.3035 2.26958 0 1.20625 2.27402 0 1.25659 2.27179 0 2.02278 2.34362 0 2.29565 2.32037 0 2.04612 2.34179 0 2.27249 2.3225 0 2.08475 2.33869 0 2.23409 2.32597 0 2.13343 2.33468 0 2.18556 2.33024 0 1.84812 2.14913 0 2.09677 2.12324 0 1.8694 2.1471 0 2.0757 2.12561 0 1.90464 2.14365 0 2.04073 2.12948 0 1.94902 2.13919 0 1.99653 2.13424 0 2.0079 2.32705 0 2.27871 2.30358 0 2.03106 2.3252 0 2.25573 2.30573 0 2.06941 2.32208 0 2.21762 2.30924 0 2.11772 2.31803 0 2.16946 2.31355 0 1.86301 2.16571 0 2.11373 2.14004 0 1.88447 2.16369 0 2.09248 2.1424 0 1.91999 2.16028 0 2.05721 2.14624 0 1.96474 2.15585 0 2.01264 2.15095 0 1.98325 2.2996 0 2.25064 2.27576 0 2.00612 2.29773 0 2.22796 2.27794 0 2.04399 2.29455 0 2.19033 2.2815 0 2.0917 2.29044 0 2.14278 2.28588 0 1.88767 2.19318 0 2.14181 2.16788 0 1.90943 2.19119 0 2.12027 2.17021 0 1.94543 2.18783 0 2.08452 2.17398 0 1.99079 2.18346 0 2.03934 2.17863 0 1.95215 2.26497 0 2.21522 2.24065 0 1.97466 2.26306 0 2.19291 2.24288 0 2.01192 2.25982 0 2.1559 2.24651 0 2.05886 2.25563 0 2.10912 2.25098 0 1.91879 2.22782 0 2.17724 2.203 0 1.94091 2.22587 0 2.15533 2.20528 0 1.97752 2.22257 0 2.11897 2.20899 0 2.02364 2.21829 0 2.07301 2.21355 0 1.58043 2.16343 0 1.83059 2.14206 0 1.60182 2.16178 0 1.80936 2.14405 0 1.63723 2.15898 0 1.77415 2.14729 0 1.68186 2.15532 0 1.72965 2.15124 0 1.43013 1.97055 0 1.65637 1.94708 0 1.44949 1.96875 0 1.63719 1.94927 0 1.48154 1.96568 0 1.60537 1.95283 0 1.52192 1.96166 0 1.56514 1.95718 0 1.56765 2.14703 0 1.81578 2.12548 0 1.58887 2.14537 0 1.79472 2.12749 0 1.624 2.14254 0 1.7598 2.13075 0 1.66826 2.13886 0 1.71567 2.13474 0 1.44297 1.98702 0 1.67125 1.96373 0 1.46251 1.98523 0 1.6519 1.96591 0 1.49484 1.98219 0 1.61978 1.96944 0 1.53558 1.9782 0 1.57919 1.97375 0 1.54647 2.11984 0 1.79122 2.098 0 1.5674 2.11816 0 1.77046 2.10004 0 1.60205 2.1153 0 1.73601 2.10335 0 1.64572 2.11156 0 1.69248 2.10739 0 1.46423 2.0143 0 1.69589 1.99131 0 1.48405 2.01253 0 1.67625 1.99346 0 1.51686 2.00952 0 1.64366 1.99694 0 1.5582 2.00559 0 1.60246 2.0012 0 1.51973 2.08552 0 1.76022 2.06331 0 1.5403 2.08381 0 1.73982 2.06538 0 1.57435 2.0809 0 1.70598 2.06875 0 1.61726 2.0771 0 1.66321 2.07286 0 1.49102 2.04868 0 1.72695 2.02607 0 1.5112 2.04694 0 1.70694 2.02818 0 1.54462 2.04398 0 1.67374 2.03161 0 1.58672 2.04011 0 1.63179 2.03579 0 1.73645 2.36371 0 2.01145 2.3445 0 1.75994 2.36223 0 1.98809 2.34628 0 1.79885 2.3597 0 1.94936 2.34919 0 1.8479 2.35641 0 1.90043 2.35274 0 1.58663 2.17139 0 1.83778 2.15011 0 1.6081 2.16975 0 1.81646 2.15209 0 1.64366 2.16696 0 1.78111 2.15531 0 1.68846 2.16331 0 1.73644 2.15925 0 1.72369 2.34733 0 1.99666 2.32794 0 1.74701 2.34583 0 1.97347 2.32974 0 1.78563 2.34328 0 1.93503 2.33267 0 1.83432 2.33996 0 1.88646 2.33626 0 1.59941 2.18778 0 1.85258 2.16668 0 1.62105 2.18615 0 1.8311 2.16865 0 1.65689 2.18339 0 1.79545 2.17184 0 1.70205 2.17977 0 1.75042 2.17574 0 1.70255 2.32018 0 1.97215 2.3005 0 1.72558 2.31866 0 1.94925 2.30234 0 1.76373 2.31608 0 1.91128 2.30531 0 1.81182 2.31271 0 1.86332 2.30895 0 1.62057 2.21494 0 1.87711 2.19413 0 1.6425 2.21334 0 1.85534 2.19607 0 1.67881 2.21061 0 1.81922 2.19922 0 1.72457 2.20704 0 1.77358 2.20307 0 1.67587 2.28594 0 1.94122 2.26589 0 1.69855 2.28439 0 1.91869 2.26775 0 1.7361 2.28176 0 1.88132 2.27078 0 1.78342 2.27832 0 1.83412 2.27449 0 1.64725 2.2492 0 1.90805 2.22876 0 1.66955 2.24762 0 1.88591 2.23066 0 1.70645 2.24494 0 1.84919 2.23376 0 1.75297 2.24144 0 1.8028 2.23754 0 
</DataArray> 
</Points> 
<Cells> 
<DataArray type="Int32" Name="connectivity">
0 1 9 8 1 2 10 9 2 3 11 10 3 4 12 11 4 5 13 12 5 6 14 13 6 7 15 14 8 9 17 16 9 10 18 17 10 11 19 18 11 12 20 19 12 13 21 20 13 14 22 21 14 15 23 22 16 17 25 24 17 18 26 25 18 19 27 26 19 20 28 27 20 21 29 28 21 22 30 29 22 23 31 30 24 25 33 32 25 26 34 33 26 27 35 34 27 28 36 35 28 29 37 36 29 30 38 37 30 31 39 38 32 33 41 40 33 34 42 41 34 35 43 42 35 36 44 43 36 37 45 44 37 38 46 45 38 39 47 46 40 41 49 48 41 42 50 49 42 43 51 50 43 44 52 51 44 45 53 52 45 46 54 53 46 47 55 54 48 49 57 56 49 50 58 57 50 51 59 58 51 52 60 59 52 53 61 60 53 54 62 61 54 55 63 62 64 65 73 72 65 66 74 73 66 67 75 74 67 68 76 75 68 69 77 76 69 70 78 77 70 71 79 78 72 73 81 80 73 74 82 81 74 75 83 82 75 76 84 83 76 77 85 84 77 78 86 85 78 79 87 86 80 81 89 88 81 82 90 89 82 83 91 90 83 84 92 91 84 85 93 92 85 86 94 93 86 87 95 94 88 89 97 96 89 90 98 97 90 91 99 98 91 92 100 99 92 93 101 100 93 94 102 101 94 95 103 102 96 97 105 104 97 98 106 105 98 99 107 106 99 100 108 107 100 101 109 108 101 102 110 109 102 103 111 110 104 105 113 112 105 106 114 113 106 107 115 114 107 108 116 115 108 109 117 116 109 110 118 117 110 111 119 118 112 113 121 120 113 114 122 121 114 115 123 122 115 116 124 123 116 117 125 124 117 118 126 125 118 119 127 126 128 129 137 136 129 130 138 137 130 131 139 138 131 132 140 139 132 133 141 140 133 134 142 141 134 135 143 142 136 137 145 144 137 138 146 145 138 139 147 146 139 140 148 147 140 141 149 148 141 142 150 149 142 143 151 150 144 145 153 152 145 146 154 153 146 147 155 154 147 148 156 155 148 149 157 156 149 150 158 157 150 151 159 158 152 153 161 160 153 154 162 161 154 155 163 162 155 156 164 163 156 157 165 164 157 158 166 165 158 159 167 166 160 161 169 168 161 162 170 169 162 163 171 170 163 164 172 171 164 165 173 172 165 166 174 173 166 167 175 174 168 169 177 176 169 170 178 177 170 171 179 178 171 172 180 179 172 173 181 180 173 174 182 181 174 175 183 182 176 177 185 184 177 178 186 185 178 179 187 186 179 180 188 187 180 181 189 188 181 182 190 189 182 183 191 190 192 193 201 200 193 194 202 201 194 195 203 202 195 196 204 203 196 197 205 204 197 198 206 205 198 199 207 206 200 201 209 208 201 202 210 209 202 203 211 210 203 204 212 211 204 205 213 212 205 206 214 213 206 207 215 214 208 209 217 216 209 210 218 217 210 211 219 218 211 212 220 219 212 213 221 220 213 214 222 221 214 215 223 222 216 217 225 224 217 218 226 225 218 219 227 226 219 220 228 227 220 221 229 228 221 222 230 229 222 223 231 230 224 225 233 232 225 226 234 233 226 227 235 234 227 228 236 235 228 229 237 236 229 230 238 237 230 231 239 238 232 233 241 240 233 234 242 241 234 235 243 242 235 236 244 243 236 237 245 244 237 238 246 245 238 239 247 246 240 241 249 248 241 242 250 249 242 243 251 250 243 244 252 251 244 245 253 252 245 246 254 253 246 247 255 254 256 257 265 264 257 258 266 265 258 259 267 266 259 260 268 267 260 261 269 268 261 262 270 269 262 263 271 270 264 265 273 272 265 266 274 273 266 267 275 274 267 268 276 275 268 269 277 276 269 270 278 277 270 271 279 278 272 273 281 280 273 274 282 281 274 275 283 282 275 276 284 283 276 277 285 284 277 278 286 285 278 279 287 286 280 281 289 288 281 282 290 289 282 283 291 290 283 284 292 291 284 285 293 292 285 286 294 293 286 287 295 294 288 289 297 296 289 290 298 297 290 291 299 298 291 292 300 299 292 293 301 300 293 294 302 301 294 295 303 302 296 297 305 304 297 298 306 305 298 299 307 306 299 300 308 307 300 301 309 308 301 302 310 309 302 303 311 310 304 305 313 312 305 306 314 313 306 307 315 314 307 308 316 315 308 309 317 316 309 310 318 317 310 311 319 318 320 321 329 328 321 322 330 329 322 323 331 330 323 324 332 331 324 325 333 332 325 326 334 333 326 327 335 334 328 329 337 336 329 330 338 337 330 331 339 338 331 332 340 339 332 333 341 340 333 334 342 341 334 335 343 342 336 337 345 344 337 338 346 345 338 339 347 346 339 340 348 347 340 341 349 348 341 342 350 349 342 343 351 350 344 345 353 352 345 346 354 353 346 347 355 354 347 348 356 355 348 349 357 356 349 350 358 357 350 351 359 358 352 353 361 360 353 354 362 361 354 355 363 362 355 356 364 363 356 357 365 364 357 358 366 365 358 359 367 366 360 361 369 368 361 362 370 369 362 363 371 370 363 364 372 371 364 365 373 372 365 366 374 373 366 367 375 374 368 369 377 376 369 370 378 377 370 371 379 378 371 372 380 379 372 373 381 380 373 374 382 381 374 375 383 382 384 385 393 392 385 386 394 393 386 387 395 394 387 388 396 395 388 389 397 396 389 390 398 397 390 391 399 398 392 393 401 400 393 394 402 401 394 395 403 402 395 396 404 403 396 397 405 404 397 398 406 405 398 399 407 406 400 401 409 408 401 402 410 409 402 403 411 410 403 404 412 411 404 405 413 412 405 406 414 413 406 407 415 414 408 409 417 416 409 410 418 417 410 411 419 418 411 412 420 419 412 413 421 420 413 414 422 421 414 415 423 422 416 417 425 424 417 418 426 425 418 419 427 426 419 420 428 427 420 421 429 428 421 422 430 429 422 423 431 430 424 425 433 432 425 426 434 433 426 427 435 434 427 428 436 435 428 429 437 436 429 430 438 437 430 431 439 438 432 433 441 440 433 434 442 441 434 435 443 442 435 436 444 443 436 437 445 444 437 438 446 445 438 439 447 446 448 449 457 456 449 450 458 457 450 451 459 458 451 452 460 459 452 453 461 460 453 454 462 461 454 455 463 462 456 457 465 464 457 458 466 465 458 459 467 466 459 460 468 467 460 461 469 468 461 462 470 469 462 463 471 470 464 465 473 472 465 466 474 473 466 467 475 474 467 468 476 475 468 469 477 476 469 470 478 477 470 471 479 478 472 473 481 480 473 474 482 481 474 475 483 482 475 476 484 483 476 477 485 484 477 478 486 485 478 479 487 486 480 481 489 488 481 482 490 489 482 483 491 490 483 484 492 491 484 485 493 492 485 486 494 493 486 487 495 494 488 489 497 496 489 490 498 497 490 491 499 498 491 492 500 499 492 493 501 500 493 494 502 501 494 495 503 502 496 497 505 504 497 498 506 505 498 499 507 506 499 500 508 507 500 501 509 508 501 502 510 509 502 503 511 510 512 513 521 520 513 514 522 521 514 515 523 522 515 516 524 523 516 517 525 524 517 518 526 525 518 519 527 526 520 521 529 528 521 522 530 529 522 523 531 530 523 524 532 531 524 525 533 532 525 526 534 533 526 527 535 534 528 529 537 536 529 530 538 537 530 531 539 538 531 532 540 539 532 533 541 540 533 534 542 541 534 535 543 542 536 537 545 544 537 538 546 545 538 539 547 546 539 540 548 547 540 541 549 548 541 542 550 549 542 543 551 550 544 545 553 552 545 546 554 553 546 547 555 554 547 548 556 555 548 549 557 556 549 550 558 557 550 551 559 558 552 553 561 560 553 554 562 561 554 555 563 562 555 556 564 563 556 557 565 564 557 558 566 565 558 559 567 566 560 561 569 568 561 562 570 569 562 563 571 570 563 564 572 571 564 565 573 572 565 566 574 573 566 567 575 574 576 577 585 584 577 578 586 585 578 579 587 586 579 580 588 587 580 581 589 588 581 582 590 589 582 583 591 590 584 585 593 592 585 586 594 593 586 587 595 594 587 588 596 595 588 589 597 596 589 590 598 597 590 591 599 598 592 593 601 600 593 594 602 601 594 595 603 602 595 596 604 603 596 597 605 604 597 598 606 605 598 599 607 606 600 601 609 608 601 602 610 609 602 603 611 610 603 604 612 611 604 605 613 612 605 606 614 613 606 607 615 614 608 609 617 616 609 610 618 617 610 611 619 618 611 612 620 619 612 613 621 620 613 614 622 621 614 615 623 622 616 617 625 624 617 618 626 625 618 619 627 626 619 620 628 627 620 621 629 628 621 622 630 629 622 623 631 630 624 625 633 632 625 626 634 633 626 627 635 634 627 628 636 635 628 629 637 636 629 630 638 637 630 631 639 638 640 641 649 648 641 642 650 649 642 643 651 650 643 644 652 651 644 645 653 652 645 646 654 653 646 647 655 654 648 649 657 656 649 650 658 657 650 651 659 658 651 652 660 659 652 653 661 660 653 654 662 661 654 655 663 662 656 657 665 664 657 658 666 665 658 659 667 666 659 660 668 667 660 661 669 668 661 662 670 669 662 663 671 670 664 665 673 672 665 666 674 673 666 667 675 674 667 668 676 675 668 669 677 676 669 670 678 677 670 671 679 678 672 673 681 680 673 674 682 681 674 675 683 682 675 676 684 683 676 677 685 684 677 678 686 685 678 679 687 686 680 681 689 688 681 682 690 689 682 683 691 690 683 684 692 691 684 685 693 692 685 686 694 693 686 687 695 694 688 689 697 696 689 690 698 697 690 691 699 698 691 692 700 699 692 693 701 700 693 694 702 701 694 695 703 702 704 705 713 712 705 706 714 713 706 707 715 714 707 708 716 715 708 709 717 716 709 710 718 717 710 711 719 718 712 713 721 720 713 714 722 721 714 715 723 722 715 716 724 723 716 717 725 724 717 718 726 725 718 719 727 726 720 721 729 728 721 722 730 729 722 723 731 730 723 724 732 731 724 725 733 732 725 726 734 733 726 727 735 734 728 729 737 736 729 730 738 737 730 731 739 738 731 732 740 739 732 733 741 740 733 734 742 741 734 735 743 742 736 737 745 744 737 738 746 745 738 739 747 746 739 740 748 747 740 741 749 748 741 742 750 749 742 743 751 750 744 745 753 752 745 746 754 753 746 747 755 754 747 748 756 755 748 749 757 756 749 750 758 757 750 751 759 758 752 753 761 760 753 754 762 761 754 755 763 762 755 756 764 763 756 757 765 764 757 758 766 765 758 759 767 766 768 769 777 776 769 770 778 777 770 771 779 778 771 772 780 779 772 773 781 780 773 774 782 781 774 775 783 782 776 777 785 784 777 778 786 785 778 779 787 786 779 780 788 787 780 781 789 788 781 782 790 789 782 783 791 790 784 785 793 792 785 786 794 793 786 787 795 794 787 788 796 795 788 789 797 796 789 790 798 797 790 791 799 798 792 793 801 800 793 794 802 801 794 795 803 802 795 796 804 803 796 797 805 804 797 798 806 805 798 799 807 806 800 801 809 808 801 802 810 809 802 803 811 810 803 804 812 811 804 805 813 812 805 806 814 813 806 807 815 814 808 809 817 816 809 810 818 817 810 811 819 818 811 812 820 819 812 813 821 820 813 814 822 821 814 815 823 822 816 817 825 824 817 818 826 825 818 819 827 826 819 820 828 827 820 821 829 828 821 822 830 829 822 823 831 830 832 833 841 840 833 834 842 841 834 835 843 842 835 836 844 843 836 837 845 844 837 838 846 845 838 839 847 846 840 841 849 848 841 842 850 849 842 843 851 850 843 844 852 851 844 845 853 852 845 846 854 853 846 847 855 854 848 849 857 856 849 850 858 857 850 851 859 858 851 852 860 859 852 853 861 860 853 854 862 861 854 855 863 862 856 857 865 864 857 858 866 865 858 859 867 866 859 860 868 867 860 861 869 868 861 862 870 869 862 863 871 870 864 865 873 872 865 866 874 873 866 867 875 874 867 868 876 875 868 869 877 876 869 870 878 877 870 871 879 878 872 873 881 880 873 874 882 881 874 875 883 882 875 876 884 883 876 877 885 884 877 878 886 885 878 879 887 886 880 881 889 888 881 882 890 889 882 883 891 890 883 884 892 891 884 885 893 892 885 886 894 893 886 887 895 894 896 897 905 904 897 898 906 905 898 899 907 906 899 900 908 907 900 901 909 908 901 902 910 909 902 903 911 910 904 905 913 912 905 906 914 913 906 907 915 914 907 908 916 915 908 909 917 916 909 910 918 917 910 911 919 918 912 913 921 920 913 914 922 921 914 915 923 922 915 916 924 923 916 917 925 924 917 918 926 925 918 919 927 926 920 921 929 928 921 922 930 929 922 923 931 930 923 924 932 931 924 925 933 932 925 926 934 933 926 927 935 934 928 929 937 936 929 930 938 937 930 931 939 938 931 932 940 939 932 933 941 940 933 934 942 941 934 935 943 942 936 937 945 944 937 938 946 945 938 939 947 946 939 940 948 947 940 941 949 948 941 942 950 949 942 943 951 950 944 945 953 952 945 946 954 953 946 947 955 954 947 948 956 955 948 949 957 956 949 950 958 957 950 951 959 958 960 961 969 968 961 962 970 969 962 963 971 970 963 964 972 971 964 965 973 972 965 966 974 973 966 967 975 974 968 969 977 976 969 970 978 977 970 971 979 978 971 972 980 979 972 973 981 980 973 974 982 981 974 975 983 982 976 977 985 984 977 978 986 985 978 979 987 986 979 980 988 987 980 981 989 988 981 982 990 989 982 983 991 990 984 985 993 992 985 986 994 993 986 987 995 994 987 988 996 995 988 989 997 996 989 990 998 997 990 991 999 998 992 993 1001 1000 993 994 1002 1001 994 995 1003 1002 995 996 1004 1003 996 997 1005 1004 997 998 1006 1005 998 999 1007 1006 1000 1001 1009 1008 1001 1002 1010 1009 1002 1003 1011 1010 1003 1004 1012 1011 1004 1005 1013 1012 1005 1006 1014 1013 1006 1007 1015 1014 1008 1009 1017 1016 1009 1010 1018 1017 1010 1011 1019 1018 1011 1012 1020 1019 1012 1013 1021 1020 1013 1014 1022 1021 1014 1015 1023 1022 1024 1025 1033 1032 1025 1026 1034 1033 1026 1027 1035 1034 1027 1028 1036 1035 1028 1029 1037 1036 1029 1030 1038 1037 1030 1031 1039 1038 1032 1033 1041 1040 1033 1034 1042 1041 1034 1035 1043 1042 1035 1036 1044 1043 1036 1037 1045 1044 1037 1038 1046 1045 1038 1039 1047 1046 1040 1041 1049 1048 1041 1042 1050 1049 1042 1043 1051 1050 1043 1044 1052 1051 1044 1045 1053 1052 1045 1046 1054 1053 1046 1047 1055 1054 1048 1049 1057 1056 1049 1050 1058 1057 1050 1051 1059 1058 1051 1052 1060 1059 1052 1053 1061 1060 1053 1054 1062 1061 1054 1055 1063 1062 1056 1057 1065 1064 1057 1058 1066 1065 1058 1059 1067 1066 1059 1060 1068 1067 1060 1061 1069 1068 1061 1062 1070 1069 1062 1063 1071 1070 1064 1065 1073 1072 1065 1066 1074 1073 1066 1067 1075 1074 1067 1068 1076 1075 1068 1069 1077 1076 1069 1070 1078 1077 1070 1071 1079 1078 1072 1073 1081 1080 1073 1074 1082 1081 1074 1075 1083 1082 1075 1076 1084 1083 1076 1077 1085 1084 1077 1078 1086 1085 1078 1079 1087 1086 1088 1089 1097 1096 1089 1090 1098 1097 1090 1091 1099 1098 1091 1092 1100 1099 1092 1093 1101 1100 1093 1094 1102 1101 1094 1095 1103 1102 1096 1097 1105 1104 1097 1098 1106 1105 1098 1099 1107 1106 1099 1100 1108 1107 1100 1101 1109 1108 1101 1102 1110 1109 1102 1103 1111 1110 1104 1105 1113 1112 1105 1106 1114 1113 1106 1107 1115 1114 1107 1108 1116 1115 1108 1109 1117 1116 1109 1110 1118 1117 1110 1111 1119 1118 1112 1113 1121 1120 1113 1114 1122 1121 1114 1115 1123 1122 1115 1116 1124 1123 1116 1117 1125 1124 1117 1118 1126 1125 1118 1119 1127 1126 1120 1121 1129 1128 1121 1122 1130 1129 1122 1123 1131 1130 1123 1124 1132 1131 1124 1125 1133 1132 1125 1126 1134 1133 1126 1127 1135 1134 1128 1129 1137 1136 1129 1130 1138 1137 1130 1131 1139 1138 1131 1132 1140 1139 1132 1133 1141 1140 1133 1134 1142 1141 1134 1135 1143 1142 1136 1137 1145 1144 1137 1138 1146 1145 1138 1139 1147 1146 1139 1140 1148 1147 1140 1141 1149 1148 1141 1142 1150 1149 1142 1143 1151 1150 1152 1153 1161 1160 1153 1154 1162 1161 1154 1155 1163 1162 1155 1156 1164 1163 1156 1157 1165 1164 1157 1158 1166 1165 1158 1159 1167 1166 1160 1161 1169 1168 1161 1162 1170 1169 1162 1163 1171 1170 1163 1164 1172 1171 1164 1165 1173 1172 1165 1166 1174 1173 1166 1167 1175 1174 1168 1169 1177 1176 1169 1170 1178 1177 1170 1171 1179 1178 1171 1172 1180 1179 1172 1173 1181 1180 1173 1174 1182 1181 1174 1175 1183 1182 1176 1177 1185 1184 1177 1178 1186 1185 1178 1179 1187 1186 1179 1180 1188 1187 1180 1181 1189 1188 1181 1182 1190 1189 1182 1183 1191 1190 1184 1185 1193 1192 1185 1186 1194 1193 1186 1187 1195 1194 1187 1188 1196 1195 1188 1189 1197 1196 1189 1190 1198 1197 1190 1191 1199 1198 1192 1193 1201 1200 1193 1194 1202 1201 1194 1195 1203 1202 1195 1196 1204 1203 1196 1197 1205 1204 1197 1198 1206 1205 1198 1199 1207 1206 1200 1201 1209 1208 1201 1202 1210 1209 1202 1203 1211 1210 1203 1204 1212 1211 1204 1205 1213 1212 1205 1206 1214 1213 1206 1207 1215 1214 1216 1217 1225 1224 1217 1218 1226 1225 1218 1219 1227 1226 1219 1220 1228 1227 1220 1221 1229 1228 1221 1222 1230 1229 1222 1223 1231 1230 1224 1225 1233 1232 1225 1226 1234 1233 1226 1227 1235 1234 1227 1228 1236 1235 1228 1229 1237 1236 1229 1230 1238 1237 1230 1231 1239 1238 1232 1233 1241 1240 1233 1234 1242 1241 1234 1235 1243 1242 1235 1236 1244 1243 1236 1237 1245 1244 1237 1238 1246 1245 1238 1239 1247 1246 1240 1241 1249 1248 1241 1242 1250 1249 1242 1243 1251 1250 1243 1244 1252 1251 1244 1245 1253 1252 1245 1246 1254 1253 1246 1247 1255 1254 1248 1249 1257 1256 1249 1250 1258 1257 1250 1251 1259 1258 1251 1252 1260 1259 1252 1253 1261 1260 1253 1254 1262 1261 1254 1255 1263 1262 1256 1257 1265 1264 1257 1258 1266 1265 1258 1259 1267 1266 1259 1260 1268 1267 1260 1261 1269 1268 1261 1262 1270 1269 1262 1263 1271 1270 1264 1265 1273 1272 1265 1266 1274 1273 1266 1267 1275 1274 1267 1268 1276 1275 1268 1269 1277 1276 1269 1270 1278 1277 1270 1271 1279 1278 1280 1281 1289 1288 1281 1282 1290 1289 1282 1283 1291 1290 1283 1284 1292 1291 1284 1285 1293 1292 1285 1286 1294 1293 1286 1287 1295 1294 1288 1289 1297 1296 1289 1290 1298 1297 1290 1291 1299 1298 1291 1292 1300 1299 1292 1293 1301 1300 1293 1294 1302 1301 1294 1295 1303 1302 1296 1297 1305 1304 1297 1298 1306 1305 1298 1299 1307 1306 1299 1300 1308 1307 1300 1301 1309 1308 1301 1302 1310 1309 1302 1303 1311 1310 1304 1305 1313 1312 1305 1306 1314 1313 1306 1307 1315 1314 1307 1308 1316 1315 1308 1309 1317 1316 1309 1310 1318 1317 1310 1311 1319 1318 1312 1313 1321 1320 1313 1314 1322 1321 1314 1315 1323 1322 1315 1316 1324 1323 1316 1317 1325 1324 1317 1318 1326 1325 1318 1319 1327 1326 1320 1321 1329 1328 1321 1322 1330 1329 1322 1323 1331 1330 1323 1324 1332 1331 1324 1325 1333 1332 1325 1326 1334 1333 1326 1327 1335 1334 1328 1329 1337 1336 1329 1330 1338 1337 1330 1331 1339 1338 1331 1332 1340 1339 1332 1333 1341 1340 1333 1334 1342 1341 1334 1335 1343 1342 1344 1345 1353 1352 1345 1346 1354 1353 1346 1347 1355 1354 1347 1348 1356 1355 1348 1349 1357 1356 1349 1350 1358 1357 1350 1351 1359 1358 1352 1353 1361 1360 1353 1354 1362 1361 1354 1355 1363 1362 1355 1356 1364 1363 1356 1357 1365 1364 1357 1358 1366 1365 1358 1359 1367 1366 1360 1361 1369 1368 1361 1362 1370 1369 1362 1363 1371 1370 1363 1364 1372 1371 1364 1365 1373 1372 1365 1366 1374 1373 1366 1367 1375 1374 1368 1369 1377 1376 1369 1370 1378 1377 1370 1371 1379 1378 1371 1372 1380 1379 1372 1373 1381 1380 1373 1374 1382 1381 1374 1375 1383 1382 1376 1377 1385 1384 1377 1378 1386 1385 1378 1379 1387 1386 1379 1380 1388 1387 1380 1381 1389 1388 1381 1382 1390 1389 1382 1383 1391 1390 1384 1385 1393 1392 1385 1386 1394 1393 1386 1387 1395 1394 1387 1388 1396 1395 1388 1389 1397 1396 1389 1390 1398 1397 1390 1391 1399 1398 1392 1393 1401 1400 1393 1394 1402 1401 1394 1395 1403 1402 1395 1396 1404 1403 1396 1397 1405 1404 1397 1398 1406 1405 1398 1399 1407 1406 1408 1409 1417 1416 1409 1410 1418 1417 1410 1411 1419 1418 1411 1412 1420 1419 1412 1413 1421 1420 1413 1414 1422 1421 1414 1415 1423 1422 1416 1417 1425 1424 1417 1418 1426 1425 1418 1419 1427 1426 1419 1420 1428 1427 1420 1421 1429 1428 1421 1422 1430 1429 1422 1423 1431 1430 1424 1425 1433 1432 1425 1426 1434 1433 1426 1427 1435 1434 1427 1428 1436 1435 1428 1429 1437 1436 1429 1430 1438 1437 1430 1431 1439 1438 1432 1433 1441 1440 1433 1434 1442 1441 1434 1435 1443 1442 1435 1436 1444 1443 1436 1437 1445 1444 1437 1438 1446 1445 1438 1439 1447 1446 1440 1441 1449 1448 1441 1442 1450 1449 1442 1443 1451 1450 1443 1444 1452 1451 1444 1445 1453 1452 1445 1446 1454 1453 1446 1447 1455 1454 1448 1449 1457 1456 1449 1450 1458 1457 1450 1451 1459 1458 1451 1452 1460 1459 1452 1453 1461 1460 1453 1454 1462 1461 1454 1455 1463 1462 1456 1457 1465 1464 1457 1458 1466 1465 1458 1459 1467 1466 1459 1460 1468 1467 1460 1461 1469 1468 1461 1462 1470 1469 1462 1463 1471 1470 1472 1473 1481 1480 1473 1474 1482 1481 1474 1475 1483 1482 1475 1476 1484 1483 1476 1477 1485 1484 1477 1478 1486 1485 1478 1479 1487 1486 1480 1481 1489 1488 1481 1482 1490 1489 1482 1483 1491 1490 1483 1484 1492 1491 1484 1485 1493 1492 1485 1486 1494 1493 1486 1487 1495 1494 1488 1489 1497 1496 1489 1490 1498 1497 1490 1491 1499 1498 1491 1492 1500 1499 1492 1493 1501 1500 1493 1494 1502 1501 1494 1495 1503 1502 1496 1497 1505 1504 1497 1498 1506 1505 1498 1499 1507 1506 1499 1500 1508 1507 1500 1501 1509 1508 1501 1502 1510 1509 1502 1503 1511 1510 1504 1505 1513 1512 1505 1506 1514 1513 1506 1507 1515 1514 1507 1508 1516 1515 1508 1509 1517 1516 1509 1510 1518 1517 1510 1511 1519 1518 1512 1513 1521 1520 1513 1514 1522 1521 1514 1515 1523 1522 1515 1516 1524 1523 1516 1517 1525 1524 1517 1518 1526 1525 1518 1519 1527 1526 1520 1521 1529 1528 1521 1522 1530 1529 1522 1523 1531 1530 1523 1524 1532 1531 1524 1525 1533 1532 1525 1526 1534 1533 1526 1527 1535 1534 1536 1537 1545 1544 1537 1538 1546 1545 1538 1539 1547 1546 1539 1540 1548 1547 1540 1541 1549 1548 1541 1542 1550 1549 1542 1543 1551 1550 1544 1545 1553 1552 1545 1546 1554 1553 1546 1547 1555 1554 1547 1548 1556 1555 1548 1549 1557 1556 1549 1550 1558 1557 1550 1551 1559 1558 1552 1553 1561 1560 1553 1554 1562 1561 1554 1555 1563 1562 1555 1556 1564 1563 1556 1557 1565 1564 1557 1558 1566 1565 1558 1559 1567 1566 1560 1561 1569 1568 1561 1562 1570 1569 1562 1563 1571 1570 1563 1564 1572 1571 1564 1565 1573 1572 1565 1566 1574 1573 1566 1567 1575 1574 1568 1569 1577 1576 1569 1570 1578 1577 1570 1571 1579 1578 1571 1572 1580 1579 1572 1573 1581 1580 1573 1574 1582 1581 1574 1575 1583 1582 1576 1577 1585 1584 1577 1578 1586 1585 1578 1579 1587 1586 1579 1580 1588 1587 1580 1581 1589 1588 1581 1582 1590 1589 1582 1583 1591 1590 1584 1585 1593 1592 1585 1586 1594 1593 1586 1587 1595 1594 1587 1588 1596 1595 1588 1589 1597 1596 1589 1590 1598 1597 1590 1591 1599 1598 1600 1601 1609 1608 1601 1602 1610 1609 1602 1603 1611 1610 1603 1604 1612 1611 1604 1605 1613 1612 1605 1606 1614 1613 1606 1607 1615 1614 1608 1609 1617 1616 1609 1610 1618 1617 1610 1611 1619 1618 1611 1612 1620 1619 1612 1613 1621 1620 1613 1614 1622 1621 1614 1615 1623 1622 1616 1617 1625 1624 1617 1618 1626 1625 1618 1619 1627 1626 1619 1620 1628 1627 1620 1621 1629 1628 1621 1622 1630 1629 1622 1623 1631 1630 1624 1625 1633 1632 1625 1626 1634 1633 1626 1627 1635 1634 1627 1628 1636 1635 1628 1629 1637 1636 1629 1630 1638 1637 1630 1631 1639 1638 1632 1633 1641 1640 1633 1634 1642 1641 1634 1635 1643 1642 1635 1636 1644 1643 1636 1637 1645 1644 1637 1638 1646 1645 1638 1639 1647 1646 1640 1641 1649 1648 1641 1642 1650 1649 1642 1643 1651 1650 1643 1644 1652 1651 1644 1645 1653 1652 1645 1646 1654 1653 1646 1647 1655 1654 1648 1649 1657 1656 1649 1650 1658 1657 1650 1651 1659 1658 1651 1652 1660 1659 1652 1653 1661 1660 1653 1654 1662 1661 1654 1655 1663 1662 1664 1665 1673 1672 1665 1666 1674 1673 1666 1667 1675 1674 1667 1668 1676 1675 1668 1669 1677 1676 1669 1670 1678 1677 1670 1671 1679 1678 1672 1673 1681 1680 1673 1674 1682 1681 1674 1675 1683 1682 1675 1676 1684 1683 1676 1677 1685 1684 1677 1678 1686 1685 1678 1679 1687 1686 1680 1681 1689 1688 1681 1682 1690 1689 1682 1683 1691 1690 1683 1684 1692 1691 1684 1685 1693 1692 1685 1686 1694 1693 1686 1687 1695 1694 1688 1689 1697 1696 1689 1690 1698 1697 1690 1691 1699 1698 1691 1692 1700 1699 1692 1693 1701 1700 1693 1694 1702 1701 1694 1695 1703 1702 1696 1697 1705 1704 1697 1698 1706 1705 1698 1699 1707 1706 1699 1700 1708 1707 1700 1701 1709 1708 1701 1702 1710 1709 1702 1703 1711 1710 1704 1705 1713 1712 1705 1706 1714 1713 1706 1707 1715 1714 1707 1708 1716 1715 1708 1709 1717 1716 1709 1710 1718 1717 1710 1711 1719 1718 1712 1713 1721 1720 1713 1714 1722 1721 1714 1715 1723 1722 1715 1716 1724 1723 1716 1717 1725 1724 1717 1718 1726 1725 1718 1719 1727 1726 1728 1729 1737 1736 1729 1730 1738 1737 1730 1731 1739 1738 1731 1732 1740 1739 1732 1733 1741 1740 1733 1734 1742 1741 1734 1735 1743 1742 1736 1737 1745 1744 1737 1738 1746 1745 1738 1739 1747 1746 1739 1740 1748 1747 1740 1741 1749 1748 1741 1742 1750 1749 1742 1743 1751 1750 1744 1745 1753 1752 1745 1746 1754 1753 1746 1747 1755 1754 1747 1748 1756 1755 1748 1749 1757 1756 1749 1750 1758 1757 1750 1751 1759 1758 1752 1753 1761 1760 1753 1754 1762 1761 1754 1755 1763 1762 1755 1756 1764 1763 1756 1757 1765 1764 1757 1758 1766 1765 1758 1759 1767 1766 1760 1761 1769 1768 1761 1762 1770 1769 1762 1763 1771 1770 1763 1764 1772 1771 1764 1765 1773 1772 1765 1766 1774 1773 1766 1767 1775 1774 1768 1769 1777 1776 1769 1770 1778 1777 1770 1771 1779 1778 1771 1772 1780 1779 1772 1773 1781 1780 1773 1774 1782 1781 1774 1775 1783 1782 1776 1777 1785 1784 1777 1778 1786 1785 1778 1779 1787 1786 1779 1780 1788 1787 1780 1781 1789 1788 1781 1782 1790 1789 1782 1783 1791 1790 1792 1793 1801 1800 1793 1794 1802 1801 1794 1795 1803 1802 1795 1796 1804 1803 1796 1797 1805 1804 1797 1798 1806 1805 1798 1799 1807 1806 1800 1801 1809 1808 1801 1802 1810 1809 1802 1803 1811 1810 1803 1804 1812 1811 1804 1805 1813 1812 1805 1806 1814 1813 1806 1807 1815 1814 1808 1809 1817 1816 1809 1810 1818 1817 1810 1811 1819 1818 1811 1812 1820 1819 1812 1813 1821 1820 1813 1814 1822 1821 1814 1815 1823 1822 1816 1817 1825 1824 1817 1818 1826 1825 1818 1819 1827 1826 1819 1820 1828 1827 1820 1821 1829 1828 1821 1822 1830 1829 1822 1823 1831 1830 1824 1825 1833 1832 1825 1826 1834 1833 1826 1827 1835 1834 1827 1828 1836 1835 1828 1829 1837 1836 1829 1830 1838 1837 1830 1831 1839 1838 1832 1833 1841 1840 1833 1834 1842 1841 1834 1835 1843 1842 1835 1836 1844 1843 1836 1837 1845 1844 1837 1838 1846 1845 1838 1839 1847 1846 1840 1841 1849 1848 1841 1842 1850 1849 1842 1843 1851 1850 1843 1844 1852 1851 1844 1845 1853 1852 1845 1846 1854 1853 1846 1847 1855 1854 1856 1857 1865 1864 1857 1858 1866 1865 1858 1859 1867 1866 1859 1860 1868 1867 1860 1861 1869 1868 1861 1862 1870 1869 1862 1863 1871 1870 1864 1865 1873 1872 1865 1866 1874 1873 1866 1867 1875 1874 1867 1868 1876 1875 1868 1869 1877 1876 1869 1870 1878 1877 1870 1871 1879 1878 1872 1873 1881 1880 1873 1874 1882 1881 1874 1875 1883 1882 1875 1876 1884 1883 1876 1877 1885 1884 1877 1878 1886 1885 1878 1879 1887 1886 1880 1881 1889 1888 1881 1882 1890 1889 1882 1883 1891 1890 1883 1884 1892 1891 1884 1885 1893 1892 1885 1886 1894 1893 1886 1887 1895 1894 1888 1889 1897 1896 1889 1890 1898 1897 1890 1891 1899 1898 1891 1892 1900 1899 1892 1893 1901 1900 1893 1894 1902 1901 1894 1895 1903 1902 1896 1897 1905 1904 1897 1898 1906 1905 1898 1899 1907 1906 1899 1900 1908 1907 1900 1901 1909 1908 1901 1902 1910 1909 1902 1903 1911 1910 1904 1905 1913 1912 1905 1906 1914 1913 1906 1907 1915 1914 1907 1908 1916 1915 1908 1909 1917 1916 1909 1910 1918 1917 1910 1911 1919 1918 1920 1921 1929 1928 1921 1922 1930 1929 1922 1923 1931 1930 1923 1924 1932 1931 1924 1925 1933 1932 1925 1926 1934 1933 1926 1927 1935 1934 1928 1929 1937 1936 1929 1930 1938 1937 1930 1931 1939 1938 1931 1932 1940 1939 1932 1933 1941 1940 1933 1934 1942 1941 1934 1935 1943 1942 1936 1937 1945 1944 1937 1938 1946 1945 1938 1939 1947 1946 1939 1940 1948 1947 1940 1941 1949 1948 1941 1942 1950 1949 1942 1943 1951 1950 1944 1945 1953 1952 1945 1946 1954 1953 1946 1947 1955 1954 1947 1948 1956 1955 1948 1949 1957 1956 1949 1950 1958 1957 1950 1951 1959 1958 1952 1953 1961 1960 1953 1954 1962 1961 1954 1955 1963 1962 1955 1956 1964 1963 1956 1957 1965 1964 1957 1958 1966 1965 1958 1959 1967 1966 1960 1961 1969 1968 1961 1962 1970 1969 1962 1963 1971 1970 1963 1964 1972 1971 1964 1965 1973 1972 1965 1966 1974 1973 1966 1967 1975 1974 1968 1969 1977 1976 1969 1970 1978 1977 1970 1971 1979 1978 1971 1972 1980 1979 1972 1973 1981 1980 1973 1974 1982 1981 1974 1975 1983 1982 1984 1985 1993 1992 1985 1986 1994 1993 1986 1987 1995 1994 1987 1988 1996 1995 1988 1989 1997 1996 1989 1990 1998 1997 1990 1991 1999 1998 1992 1993 2001 2000 1993 1994 2002 2001 1994 1995 2003 2002 1995 1996 2004 2003 1996 1997 2005 2004 1997 1998 2006 2005 1998 1999 2007 2006 2000 2001 2009 2008 2001 2002 2010 2009 2002 2003 2011 2010 2003 2004 2012 2011 2004 2005 2013 2012 2005 2006 2014 2013 2006 2007 2015 2014 2008 2009 2017 2016 2009 2010 2018 2017 2010 2011 2019 2018 2011 2012 2020 2019 2012 2013 2021 2020 2013 2014 2022 2021 2014 2015 2023 2022 2016 2017 2025 2024 2017 2018 2026 2025 2018 2019 2027 2026 2019 2020 2028 2027 2020 2021 2029 2028 2021 2022 2030 2029 2022 2023 2031 2030 2024 2025 2033 2032 2025 2026 2034 2033 2026 2027 2035 2034 2027 2028 2036 2035 2028 2029 2037 2036 2029 2030 2038 2037 2030 2031 2039 2038 2032 2033 2041 2040 2033 2034 2042 2041 2034 2035 2043 2042 2035 2036 2044 2043 2036 2037 2045 2044 2037 2038 2046 2045 2038 2039 2047 2046 2048 2049 2057 2056 2049 2050 2058 2057 2050 2051 2059 2058 2051 2052 2060 2059 2052 2053 2061 2060 2053 2054 2062 2061 2054 2055 2063 2062 2056 2057 2065 2064 2057 2058 2066 2065 2058 2059 2067 2066 2059 2060 2068 2067 2060 2061 2069 2068 2061 2062 2070 2069 2062 2063 2071 2070 2064 2065 2073 2072 2065 2066 2074 2073 2066 2067 2075 2074 2067 2068 2076 2075 2068 2069 2077 2076 2069 2070 2078 2077 2070 2071 2079 2078 2072 2073 2081 2080 2073 2074 2082 2081 2074 2075 2083 2082 2075 2076 2084 2083 2076 2077 2085 2084 2077 2078 2086 2085 2078 2079 2087 2086 2080 2081 2089 2088 2081 2082 2090 2089 2082 2083 2091 2090 2083 2084 2092 2091 2084 2085 2093 2092 2085 2086 2094 2093 2086 2087 2095 2094 2088 2089 2097 2096 2089 2090 2098 2097 2090 2091 2099 2098 2091 2092 2100 2099 2092 2093 2101 2100 2093 2094 2102 2101 2094 2095 2103 2102 2096 2097 2105 2104 2097 2098 2106 2105 2098 2099 2107 2106 2099 2100 2108 2107 2100 2101 2109 2108 2101 2102 2110 2109 2102 2103 2111 2110 2112 2113 2121 2120 2113 2114 2122 2121 2114 2115 2123 2122 2115 2116 2124 2123 2116 2117 2125 2124 2117 2118 2126 2125 2118 2119 2127 2126 2120 2121 2129 2128 2121 2122 2130 2129 2122 2123 2131 2130 2123 2124 2132 2131 2124 2125 2133 2132 2125 2126 2134 2133 2126 2127 2135 2134 2128 2129 2137 2136 2129 2130 2138 2137 2130 2131 2139 2138 2131 2132 2140 2139 2132 2133 2141 2140 2133 2134 2142 2141 2134 2135 2143 2142 2136 2137 2145 2144 2137 2138 2146 2145 2138 2139 2147 2146 2139 2140 2148 2147 2140 2141 2149 2148 2141 2142 2150 2149 2142 2143 2151 2150 2144 2145 2153 2152 2145 2146 2154 2153 2146 2147 2155 2154 2147 2148 2156 2155 2148 2149 2157 2156 2149 2150 2158 2157 2150 2151 2159 2158 2152 2153 2161 2160 2153 2154 2162 2161 2154 2155 2163 2162 2155 2156 2164 2163 2156 2157 2165 2164 2157 2158 2166 2165 2158 2159 2167 2166 2160 2161 2169 2168 2161 2162 2170 2169 2162 2163 2171 2170 2163 2164 2172 2171 2164 2165 2173 2172 2165 2166 2174 2173 2166 2167 2175 2174 2176 2177 2185 2184 2177 2178 2186 2185 2178 2179 2187 2186 2179 2180 2188 2187 2180 2181 2189 2188 2181 2182 2190 2189 2182 2183 2191 2190 2184 2185 2193 2192 2185 2186 2194 2193 2186 2187 2195 2194 2187 2188 2196 2195 2188 2189 2197 2196 2189 2190 2198 2197 2190 2191 2199 2198 2192 2193 2201 2200 2193 2194 2202 2201 2194 2195 2203 2202 2195 2196 2204 2203 2196 2197 2205 2204 2197 2198 2206 2205 2198 2199 2207 2206 2200 2201 2209 2208 2201 2202 2210 2209 2202 2203 2211 2210 2203 2204 2212 2211 2204 2205 2213 2212 2205 2206 2214 2213 2206 2207 2215 2214 2208 2209 2217 2216 2209 2210 2218 2217 2210 2211 2219 2218 2211 2212 2220 2219 2212 2213 2221 2220 2213 2214 2222 2221 2214 2215 2223 2222 2216 2217 2225 2224 2217 2218 2226 2225 2218 2219 2227 2226 2219 2220 2228 2227 2220 2221 2229 2228 2221 2222 2230 2229 2222 2223 2231 2230 2224 2225 2233 2232 2225 2226 2234 2233 2226 2227 2235 2234 2227 2228 2236 2235 2228 2229 2237 2236 2229 2230 2238 2237 2230 2231 2239 2238 2240 2241 2249 2248 2241 2242 2250 2249 2242 2243 2251 2250 2243 2244 2252 2251 2244 2245 2253 2252 2245 2246 2254 2253 2246 2247 2255 2254 2248 2249 2257 2256 2249 2250 2258 2257 2250 2251 2259 2258 2251 2252 2260 2259 2252 2253 2261 2260 2253 2254 2262 2261 2254 2255 2263 2262 2256 2257 2265 2264 2257 2258 2266 2265 2258 2259 2267 2266 2259 2260 2268 2267 2260 2261 2269 2268 2261 2262 2270 2269 2262 2263 2271 2270 2264 2265 2273 2272 2265 2266 2274 2273 2266 2267 2275 2274 2267 2268 2276 2275 2268 2269 2277 2276 2269 2270 2278 2277 2270 2271 2279 2278 2272 2273 2281 2280 2273 2274 2282 2281 2274 2275 2283 2282 2275 2276 2284 2283 2276 2277 2285 2284 2277 2278 2286 2285 2278 2279 2287 2286 2280 2281 2289 2288 2281 2282 2290 2289 2282 2283 2291 2290 2283 2284 2292 2291 2284 2285 2293 2292 2285 2286 2294 2293 2286 2287 2295 2294 2288 2289 2297 2296 2289 2290 2298 2297 2290 2291 2299 2298 2291 2292 2300 2299 2292 2293 2301 2300 2293 2294 2302 2301 2294 2295 2303 2302 2304 2305 2313 2312 2305 2306 2314 2313 2306 2307 2315 2314 2307 2308 2316 2315 2308 2309 2317 2316 2309 2310 2318 2317 2310 2311 2319 2318 2312 2313 2321 2320 2313 2314 2322 2321 2314 2315 2323 2322 2315 2316 2324 2323 2316 2317 2325 2324 2317 2318 2326 2325 2318 2319 2327 2326 2320 2321 2329 2328 2321 2322 2330 2329 2322 2323 2331 2330 2323 2324 2332 2331 2324 2325 2333 2332 2325 2326 2334 2333 2326 2327 2335 2334 2328 2329 2337 2336 2329 2330 2338 2337 2330 2331 2339 2338 2331 2332 2340 2339 2332 2333 2341 2340 2333 2334 2342 2341 2334 2335 2343 2342 2336 2337 2345 2344 2337 2338 2346 2345 2338 2339 2347 2346 2339 2340 2348 2347 2340 2341 2349 2348 2341 2342 2350 2349 2342 2343 2351 2350 2344 2345 2353 2352 2345 2346 2354 2353 2346 2347 2355 2354 2347 2348 2356 2355 2348 2349 2357 2356 2349 2350 2358 2357 2350 2351 2359 2358 2352 2353 2361 2360 2353 2354 2362 2361 2354 2355 2363 2362 2355 2356 2364 2363 2356 2357 2365 2364 2357 2358 2366 2365 2358 2359 2367 2366 2368 2369 2377 2376 2369 2370 2378 2377 2370 2371 2379 2378 2371 2372 2380 2379 2372 2373 2381 2380 2373 2374 2382 2381 2374 2375 2383 2382 2376 2377 2385 2384 2377 2378 2386 2385 2378 2379 2387 2386 2379 2380 2388 2387 2380 2381 2389 2388 2381 2382 2390 2389 2382 2383 2391 2390 2384 2385 2393 2392 2385 2386 2394 2393 2386 2387 2395 2394 2387 2388 2396 2395 2388 2389 2397 2396 2389 2390 2398 2397 2390 2391 2399 2398 2392 2393 2401 2400 2393 2394 2402 2401 2394 2395 2403 2402 2395 2396 2404 2403 2396 2397 2405 2404 2397 2398 2406 2405 2398 2399 2407 2406 2400 2401 2409 2408 2401 2402 2410 2409 2402 2403 2411 2410 2403 2404 2412 2411 2404 2405 2413 2412 2405 2406 2414 2413 2406 2407 2415 2414 2408 2409 2417 2416 2409 2410 2418 2417 2410 2411 2419 2418 2411 2412 2420 2419 2412 2413 2421 2420 2413 2414 2422 2421 2414 2415 2423 2422 2416 2417 2425 2424 2417 2418 2426 2425 2418 2419 2427 2426 2419 2420 2428 2427 2420 2421 2429 2428 2421 2422 2430 2429 2422 2423 2431 2430 2432 2433 2441 2440 2433 2434 2442 2441 2434 2435 2443 2442 2435 2436 2444 2443 2436 2437 2445 2444 2437 2438 2446 2445 2438 2439 2447 2446 2440 2441 2449 2448 2441 2442 2450 2449 2442 2443 2451 2450 2443 2444 2452 2451 2444 2445 2453 2452 2445 2446 2454 2453 2446 2447 2455 2454 2448 2449 2457 2456 2449 2450 2458 2457 2450 2451 2459 2458 2451 2452 2460 2459 2452 2453 2461 2460 2453 2454 2462 2461 2454 2455 2463 2462 2456 2457 2465 2464 2457 2458 2466 2465 2458 2459 2467 2466 2459 2460 2468 2467 2460 2461 2469 2468 2461 2462 2470 2469 2462 2463 2471 2470 2464 2465 2473 2472 2465 2466 2474 2473 2466 2467 2475 2474 2467 2468 2476 2475 2468 2469 2477 2476 2469 2470 2478 2477 2470 2471 2479 2478 2472 2473 2481 2480 2473 2474 2482 2481 2474 2475 2483 2482 2475 2476 2484 2483 2476 2477 2485 2484 2477 2478 2486 2485 2478 2479 2487 2486 2480 2481 2489 2488 2481 2482 2490 2489 2482 2483 2491 2490 2483 2484 2492 2491 2484 2485 2493 2492 2485 2486 2494 2493 2486 2487 2495 2494 2496 2497 2505 2504 2497 2498 2506 2505 2498 2499 2507 2506 2499 2500 2508 2507 2500 2501 2509 2508 2501 2502 2510 2509 2502 2503 2511 2510 2504 2505 2513 2512 2505 2506 2514 2513 2506 2507 2515 2514 2507 2508 2516 2515 2508 2509 2517 2516 2509 2510 2518 2517 2510 2511 2519 2518 2512 2513 2521 2520 2513 2514 2522 2521 2514 2515 2523 2522 2515 2516 2524 2523 2516 2517 2525 2524 2517 2518 2526 2525 2518 2519 2527 2526 2520 2521 2529 2528 2521 2522 2530 2529 2522 2523 2531 2530 2523 2524 2532 2531 2524 2525 2533 2532 2525 2526 2534 2533 2526 2527 2535 2534 2528 2529 2537 2536 2529 2530 2538 2537 2530 2531 2539 2538 2531 2532 2540 2539 2532 2533 2541 2540 2533 2534 2542 2541 2534 2535 2543 2542 2536 2537 2545 2544 2537 2538 2546 2545 2538 2539 2547 2546 2539 2540 2548 2547 2540 2541 2549 2548 2541 2542 2550 2549 2542 2543 2551 2550 2544 2545 2553 2552 2545 2546 2554 2553 2546 2547 2555 2554 2547 2548 2556 2555 2548 2549 2557 2556 2549 2550 2558 2557 2550 2551 2559 2558 2560 2561 2569 2568 2561 2562 2570 2569 2562 2563 2571 2570 2563 2564 2572 2571 2564 2565 2573 2572 2565 2566 2574 2573 2566 2567 2575 2574 2568 2569 2577 2576 2569 2570 2578 2577 2570 2571 2579 2578 2571 2572 2580 2579 2572 2573 2581 2580 2573 2574 2582 2581 2574 2575 2583 2582 2576 2577 2585 2584 2577 2578 2586 2585 2578 2579 2587 2586 2579 2580 2588 2587 2580 2581 2589 2588 2581 2582 2590 2589 2582 2583 2591 2590 2584 2585 2593 2592 2585 2586 2594 2593 2586 2587 2595 2594 2587 2588 2596 2595 2588 2589 2597 2596 2589 2590 2598 2597 2590 2591 2599 2598 2592 2593 2601 2600 2593 2594 2602 2601 2594 2595 2603 2602 2595 2596 2604 2603 2596 2597 2605 2604 2597 2598 2606 2605 2598 2599 2607 2606 2600 2601 2609 2608 2601 2602 2610 2609 2602 2603 2611 2610 2603 2604 2612 2611 2604 2605 2613 2612 2605 2606 2614 2613 2606 2607 2615 2614 2608 2609 2617 2616 2609 2610 2618 2617 2610 2611 2619 2618 2611 2612 2620 2619 2612 2613 2621 2620 2613 2614 2622 2621 2614 2615 2623 2622 2624 2625 2633 2632 2625 2626 2634 2633 2626 2627 2635 2634 2627 2628 2636 2635 2628 2629 2637 2636 2629 2630 2638 2637 2630 2631 2639 2638 2632 2633 2641 2640 2633 2634 2642 2641 2634 2635 2643 2642 2635 2636 2644 2643 2636 2637 2645 2644 2637 2638 2646 2645 2638 2639 2647 2646 2640 2641 2649 2648 2641 2642 2650 2649 2642 2643 2651 2650 2643 2644 2652 2651 2644 2645 2653 2652 2645 2646 2654 2653 2646 2647 2655 2654 2648 2649 2657 2656 2649 2650 2658 2657 2650 2651 2659 2658 2651 2652 2660 2659 2652 2653 2661 2660 2653 2654 2662 2661 2654 2655 2663 2662 2656 2657 2665 2664 2657 2658 2666 2665 2658 2659 2667 2666 2659 2660 2668 2667 2660 2661 2669 2668 2661 2662 2670 2669 2662 2663 2671 2670 2664 2665 2673 2672 2665 2666 2674 2673 2666 2667 2675 2674 2667 2668 2676 2675 2668 2669 2677 2676 2669 2670 2678 2677 2670 2671 2679 2678 2672 2673 2681 2680 2673 2674 2682 2681 2674 2675 2683 2682 2675 2676 2684 2683 2676 2677 2685 2684 2677 2678 2686 2685 2678 2679 2687 2686 2688 2689 2697 2696 2689 2690 2698 2697 2690 2691 2699 2698 2691 2692 2700 2699 2692 2693 2701 2700 2693 2694 2702 2701 2694 2695 2703 2702 2696 2697 2705 2704 2697 2698 2706 2705 2698 2699 2707 2706 2699 2700 2708 2707 2700 2701 2709 2708 2701 2702 2710 2709 2702 2703 2711 2710 2704 2705 2713 2712 2705 2706 2714 2713 2706 2707 2715 2714 2707 2708 2716 2715 2708 2709 2717 2716 2709 2710 2718 2717 2710 2711 2719 2718 2712 2713 2721 2720 2713 2714 2722 2721 2714 2715 2723 2722 2715 2716 2724 2723 2716 2717 2725 2724 2717 2718 2726 2725 2718 2719 2727 2726 2720 2721 2729 2728 2721 2722 2730 2729 2722 2723 2731 2730 2723 2724 2732 2731 2724 2725 2733 2732 2725 2726 2734 2733 2726 2727 2735 2734 2728 2729 2737 2736 2729 2730 2738 2737 2730 2731 2739 2738 2731 2732 2740 2739 2732 2733 2741 2740 2733 2734 2742 2741 2734 2735 2743 2742 2736 2737 2745 2744 2737 2738 2746 2745 2738 2739 2747 2746 2739 2740 2748 2747 2740 2741 2749 2748 2741 2742 2750 2749 2742 2743 2751 2750 2752 2753 2761 2760 2753 2754 2762 2761 2754 2755 2763 2762 2755 2756 2764 2763 2756 2757 2765 2764 2757 2758 2766 2765 2758 2759 2767 2766 2760 2761 2769 2768 2761 2762 2770 2769 2762 2763 2771 2770 2763 2764 2772 2771 2764 2765 2773 2772 2765 2766 2774 2773 2766 2767 2775 2774 2768 2769 2777 2776 2769 2770 2778 2777 2770 2771 2779 2778 2771 2772 2780 2779 2772 2773 2781 2780 2773 2774 2782 2781 2774 2775 2783 2782 2776 2777 2785 2784 2777 2778 2786 2785 2778 2779 2787 2786 2779 2780 2788 2787 2780 2781 2789 2788 2781 2782 2790 2789 2782 2783 2791 2790 2784 2785 2793 2792 2785 2786 2794 2793 2786 2787 2795 2794 2787 2788 2796 2795 2788 2789 2797 2796 2789 2790 2798 2797 2790 2791 2799 2798 2792 2793 2801 2800 2793 2794 2802 2801 2794 2795 2803 2802 2795 2796 2804 2803 2796 2797 2805 2804 2797 2798 2806 2805 2798 2799 2807 2806 2800 2801 2809 2808 2801 2802 2810 2809 2802 2803 2811 2810 2803 2804 2812 2811 2804 2805 2813 2812 2805 2806 2814 2813 2806 2807 2815 2814 2816 2817 2825 2824 2817 2818 2826 2825 2818 2819 2827 2826 2819 2820 2828 2827 2820 2821 2829 2828 2821 2822 2830 2829 2822 2823 2831 2830 2824 2825 2833 2832 2825 2826 2834 2833 2826 2827 2835 2834 2827 2828 2836 2835 2828 2829 2837 2836 2829 2830 2838 2837 2830 2831 2839 2838 2832 2833 2841 2840 2833 2834 2842 2841 2834 2835 2843 2842 2835 2836 2844 2843 2836 2837 2845 2844 2837 2838 2846 2845 2838 2839 2847 2846 2840 2841 2849 2848 2841 2842 2850 2849 2842 2843 2851 2850 2843 2844 2852 2851 2844 2845 2853 2852 2845 2846 2854 2853 2846 2847 2855 2854 2848 2849 2857 2856 2849 2850 2858 2857 2850 2851 2859 2858 2851 2852 2860 2859 2852 2853 2861 2860 2853 2854 2862 2861 2854 2855 2863 2862 2856 2857 2865 2864 2857 2858 2866 2865 2858 2859 2867 2866 2859 2860 2868 2867 2860 2861 2869 2868 2861 2862 2870 2869 2862 2863 2871 2870 2864 2865 2873 2872 2865 2866 2874 2873 2866 2867 2875 2874 2867 2868 2876 2875 2868 2869 2877 2876 2869 2870 2878 2877 2870 2871 2879 2878 2880 2881 2889 2888 2881 2882 2890 2889 2882 2883 2891 2890 2883 2884 2892 2891 2884 2885 2893 2892 2885 2886 2894 2893 2886 2887 2895 2894 2888 2889 2897 2896 2889 2890 2898 2897 2890 2891 2899 2898 2891 2892 2900 2899 2892 2893 2901 2900 2893 2894 2902 2901 2894 2895 2903 2902 2896 2897 2905 2904 2897 2898 2906 2905 2898 2899 2907 2906 2899 2900 2908 2907 2900 2901 2909 2908 2901 2902 2910 2909 2902 2903 2911 2910 2904 2905 2913 2912 2905 2906 2914 2913 2906 2907 2915 2914 2907 2908 2916 2915 2908 2909 2917 2916 2909 2910 2918 2917 2910 2911 2919 2918 2912 2913 2921 2920 2913 2914 2922 2921 2914 2915 2923 2922 2915 2916 2924 2923 2916 2917 2925 2924 2917 2918 2926 2925 2918 2919 2927 2926 2920 2921 2929 2928 2921 2922 2930 2929 2922 2923 2931 2930 2923 2924 2932 2931 2924 2925 2933 2932 2925 2926 2934 2933 2926 2927 2935 2934 2928 2929 2937 2936 2929 2930 2938 2937 2930 2931 2939 2938 2931 2932 2940 2939 2932 2933 2941 2940 2933 2934 2942 2941 2934 2935 2943 2942 2944 2945 2953 2952 2945 2946 2954 2953 2946 2947 2955 2954 2947 2948 2956 2955 2948 2949 2957 2956 2949 2950 2958 2957 2950 2951 2959 2958 2952 2953 2961 2960 2953 2954 2962 2961 2954 2955 2963 2962 2955 2956 2964 2963 2956 2957 2965 2964 2957 2958 2966 2965 2958 2959 2967 2966 2960 2961 2969 2968 2961 2962 2970 2969 2962 2963 2971 2970 2963 2964 2972 2971 2964 2965 2973 2972 2965 2966 2974 2973 2966 2967 2975 2974 2968 2969 2977 2976 2969 2970 2978 2977 2970 2971 2979 2978 2971 2972 2980 2979 2972 2973 2981 2980 2973 2974 2982 2981 2974 2975 2983 2982 2976 2977 2985 2984 2977 2978 2986 2985 2978 2979 2987 2986 2979 2980 2988 2987 2980 2981 2989 2988 2981 2982 2990 2989 2982 2983 2991 2990 2984 2985 2993 2992 2985 2986 2994 2993 2986 2987 2995 2994 2987 2988 2996 2995 2988 2989 2997 2996 2989 2990 2998 2997 2990 2991 2999 2998 2992 2993 3001 3000 2993 2994 3002 3001 2994 2995 3003 3002 2995 2996 3004 3003 2996 2997 3005 3004 2997 2998 3006 3005 2998 2999 3007 3006 3008 3009 3017 3016 3009 3010 3018 3017 3010 3011 3019 3018 3011 3012 3020 3019 3012 3013 3021 3020 3013 3014 3022 3021 3014 3015 3023 3022 3016 3017 3025 3024 3017 3018 3026 3025 3018 3019 3027 3026 3019 3020 3028 3027 3020 3021 3029 3028 3021 3022 3030 3029 3022 3023 3031 3030 3024 3025 3033 3032 3025 3026 3034 3033 3026 3027 3035 3034 3027 3028 3036 3035 3028 3029 3037 3036 3029 3030 3038 3037 3030 3031 3039 3038 3032 3033 3041 3040 3033 3034 3042 3041 3034 3035 3043 3042 3035 3036 3044 3043 3036 3037 3045 3044 3037 3038 3046 3045 3038 3039 3047 3046 3040 3041 3049 3048 3041 3042 3050 3049 3042 3043 3051 3050 3043 3044 3052 3051 3044 3045 3053 3052 3045 3046 3054 3053 3046 3047 3055 3054 3048 3049 3057 3056 3049 3050 3058 3057 3050 3051 3059 3058 3051 3052 3060 3059 3052 3053 3061 3060 3053 3054 3062 3061 3054 3055 3063 3062 3056 3057 3065 3064 3057 3058 3066 3065 3058 3059 3067 3066 3059 3060 3068 3067 3060 3061 3069 3068 3061 3062 3070 3069 3062 3063 3071 3070 3072 3073 3081 3080 3073 3074 3082 3081 3074 3075 3083 3082 3075 3076 3084 3083 3076 3077 3085 3084 3077 3078 3086 3085 3078 3079 3087 3086 3080 3081 3089 3088 3081 3082 3090 3089 3082 3083 3091 3090 3083 3084 3092 3091 3084 3085 3093 3092 3085 3086 3094 3093 3086 3087 3095 3094 3088 3089 3097 3096 3089 3090 3098 3097 3090 3091 3099 3098 3091 3092 3100 3099 3092 3093 3101 3100 3093 3094 3102 3101 3094 3095 3103 3102 3096 3097 3105 3104 3097 3098 3106 3105 3098 3099 3107 3106 3099 3100 3108 3107 3100 3101 3109 3108 3101 3102 3110 3109 3102 3103 3111 3110 3104 3105 3113 3112 3105 3106 3114 3113 3106 3107 3115 3114 3107 3108 3116 3115 3108 3109 3117 3116 3109 3110 3118 3117 3110 3111 3119 3118 3112 3113 3121 3120 3113 3114 3122 3121 3114 3115 3123 3122 3115 3116 3124 3123 3116 3117 3125 3124 3117 3118 3126 3125 3118 3119 3127 3126 3120 3121 3129 3128 3121 3122 3130 3129 3122 3123 3131 3130 3123 3124 3132 3131 3124 3125 3133 3132 3125 3126 3134 3133 3126 3127 3135 3134 3136 3137 3145 3144 3137 3138 3146 3145 3138 3139 3147 3146 3139 3140 3148 3147 3140 3141 3149 3148 3141 3142 3150 3149 3142 3143 3151 3150 3144 3145 3153 3152 3145 3146 3154 3153 3146 3147 3155 3154 3147 3148 3156 3155 3148 3149 3157 3156 3149 3150 3158 3157 3150 3151 3159 3158 3152 3153 3161 3160 3153 3154 3162 3161 3154 3155 3163 3162 3155 3156 3164 3163 3156 3157 3165 3164 3157 3158 3166 3165 3158 3159 3167 3166 3160 3161 3169 3168 3161 3162 3170 3169 3162 3163 3171 3170 3163 3164 3172 3171 3164 3165 3173 3172 3165 3166 3174 3173 3166 3167 3175 3174 3168 3169 3177 3176 3169 3170 3178 3177 3170 3171 3179 3178 3171 3172 3180 3179 3172 3173 3181 3180 3173 3174 3182 3181 3174 3175 3183 3182 3176 3177 3185 3184 3177 3178 3186 3185 3178 3179 3187 3186 3179 3180 3188 3187 3180 3181 3189 3188 3181 3182 3190 3189 3182 3183 3191 3190 3184 3185 3193 3192 3185 3186 3194 3193 3186 3187 3195 3194 3187 3188 3196 3195 3188 3189 3197 3196 3189 3190 3198 3197 3190 3191 3199 3198 3200 3201 3209 3208 3201 3202 3210 3209 3202 3203 3211 3210 3203 3204 3212 3211 3204 3205 3213 3212 3205 3206 3214 3213 3206 3207 3215 3214 3208 3209 3217 3216 3209 3210 3218 3217 3210 3211 3219 3218 3211 3212 3220 3219 3212 3213 3221 3220 3213 3214 3222 3221 3214 3215 3223 3222 3216 3217 3225 3224 3217 3218 3226 3225 3218 3219 3227 3226 3219 3220 3228 3227 3220 3221 3229 3228 3221 3222 3230 3229 3222 3223 3231 3230 3224 3225 3233 3232 3225 3226 3234 3233 3226 3227 3235 3234 3227 3228 3236 3235 3228 3229 3237 3236 3229 3230 3238 3237 3230 3231 3239 3238 3232 3233 3241 3240 3233 3234 3242 3241 3234 3235 3243 3242 3235 3236 3244 3243 3236 3237 3245 3244 3237 3238 3246 3245 3238 3239 3247 3246 3240 3241 3249 3248 3241 3242 3250 3249 3242 3243 3251 3250 3243 3244 3252 3251 3244 3245 3253 3252 3245 3246 3254 3253 3246 3247 3255 3254 3248 3249 3257 3256 3249 3250 3258 3257 3250 3251 3259 3258 3251 3252 3260 3259 3252 3253 3261 3260 3253 3254 3262 3261 3254 3255 3263 3262 3264 3265 3273 3272 3265 3266 3274 3273 3266 3267 3275 3274 3267 3268 3276 3275 3268 3269 3277 3276 3269 3270 3278 3277 3270 3271 3279 3278 3272 3273 3281 3280 3273 3274 3282 3281 3274 3275 3283 3282 3275 3276 3284 3283 3276 3277 3285 3284 3277 3278 3286 3285 3278 3279 3287 3286 3280 3281 3289 3288 3281 3282 3290 3289 3282 3283 3291 3290 3283 3284 3292 3291 3284 3285 3293 3292 3285 3286 3294 3293 3286 3287 3295 3294 3288 3289 3297 3296 3289 3290 3298 3297 3290 3291 3299 3298 3291 3292 3300 3299 3292 3293 3301 3300 3293 3294 3302 3301 3294 3295 3303 3302 3296 3297 3305 3304 3297 3298 3306 3305 3298 3299 3307 3306 3299 3300 3308 3307 3300 3301 3309 3308 3301 3302 3310 3309 3302 3303 3311 3310 3304 3305 3313 3312 3305 3306 3314 3313 3306 3307 3315 3314 3307 3308 3316 3315 3308 3309 3317 3316 3309 3310 3318 3317 3310 3311 3319 3318 3312 3313 3321 3320 3313 3314 3322 3321 3314 3315 3323 3322 3315 3316 3324 3323 3316 3317 3325 3324 3317 3318 3326 3325 3318 3319 3327 3326 3328 3329 3337 3336 3329 3330 3338 3337 3330 3331 3339 3338 3331 3332 3340 3339 3332 3333 3341 3340 3333 3334 3342 3341 3334 3335 3343 3342 3336 3337 3345 3344 3337 3338 3346 3345 3338 3339 3347 3346 3339 3340 3348 3347 3340 3341 3349 3348 3341 3342 3350 3349 3342 3343 3351 3350 3344 3345 3353 3352 3345 3346 3354 3353 3346 3347 3355 3354 3347 3348 3356 3355 3348 3349 3357 3356 3349 3350 3358 3357 3350 3351 3359 3358 3352 3353 3361 3360 3353 3354 3362 3361 3354 3355 3363 3362 3355 3356 3364 3363 3356 3357 3365 3364 3357 3358 3366 3365 3358 3359 3367 3366 3360 3361 3369 3368 3361 3362 3370 3369 3362 3363 3371 3370 3363 3364 3372 3371 3364 3365 3373 3372 3365 3366 3374 3373 3366 3367 3375 3374 3368 3369 3377 3376 3369 3370 3378 3377 3370 3371 3379 3378 3371 3372 3380 3379 3372 3373 3381 3380 3373 3374 3382 3381 3374 3375 3383 3382 3376 3377 3385 3384 3377 3378 3386 3385 3378 3379 3387 3386 3379 3380 3388 3387 3380 3381 3389 3388 3381 3382 3390 3389 3382 3383 3391 3390 3392 3393 3401 3400 3393 3394 3402 3401 3394 3395 3403 3402 3395 3396 3404 3403 3396 3397 3405 3404 3397 3398 3406 3405 3398 3399 3407 3406 3400 3401 3409 3408 3401 3402 3410 3409 3402 3403 3411 3410 3403 3404 3412 3411 3404 3405 3413 3412 3405 3406 3414 3413 3406 3407 3415 3414 3408 3409 3417 3416 3409 3410 3418 3417 3410 3411 3419 3418 3411 3412 3420 3419 3412 3413 3421 3420 3413 3414 3422 3421 3414 3415 3423 3422 3416 3417 3425 3424 3417 3418 3426 3425 3418 3419 3427 3426 3419 3420 3428 3427 3420 3421 3429 3428 3421 3422 3430 3429 3422 3423 3431 3430 3424 3425 3433 3432 3425 3426 3434 3433 3426 3427 3435 3434 3427 3428 3436 3435 3428 3429 3437 3436 3429 3430 3438 3437 3430 3431 3439 3438 3432 3433 3441 3440 3433 3434 3442 3441 3434 3435 3443 3442 3435 3436 3444 3443 3436 3437 3445 3444 3437 3438 3446 3445 3438 3439 3447 3446 3440 3441 3449 3448 3441 3442 3450 3449 3442 3443 3451 3450 3443 3444 3452 3451 3444 3445 3453 3452 3445 3446 3454 3453 3446 3447 3455 3454 3456 3457 3465 3464 3457 3458 3466 3465 3458 3459 3467 3466 3459 3460 3468 3467 3460 3461 3469 3468 3461 3462 3470 3469 3462 3463 3471 3470 3464 3465 3473 3472 3465 3466 3474 3473 3466 3467 3475 3474 3467 3468 3476 3475 3468 3469 3477 3476 3469 3470 3478 3477 3470 3471 3479 3478 3472 3473 3481 3480 3473 3474 3482 3481 3474 3475 3483 3482 3475 3476 3484 3483 3476 3477 3485 3484 3477 3478 3486 3485 3478 3479 3487 3486 3480 3481 3489 3488 3481 3482 3490 3489 3482 3483 3491 3490 3483 3484 3492 3491 3484 3485 3493 3492 3485 3486 3494 3493 3486 3487 3495 3494 3488 3489 3497 3496 3489 3490 3498 3497 3490 3491 3499 3498 3491 3492 3500 3499 3492 3493 3501 3500 3493 3494 3502 3501 3494 3495 3503 3502 3496 3497 3505 3504 3497 3498 3506 3505 3498 3499 3507 3506 3499 3500 3508 3507 3500 3501 3509 3508 3501 3502 3510 3509 3502 3503 3511 3510 3504 3505 3513 3512 3505 3506 3514 3513 3506 3507 3515 3514 3507 3508 3516 3515 3508 3509 3517 3516 3509 3510 3518 3517 3510 3511 3519 3518 3520 3521 3529 3528 3521 3522 3530 3529 3522 3523 3531 3530 3523 3524 3532 3531 3524 3525 3533 3532 3525 3526 3534 3533 3526 3527 3535 3534 3528 3529 3537 3536 3529 3530 3538 3537 3530 3531 3539 3538 3531 3532 3540 3539 3532 3533 3541 3540 3533 3534 3542 3541 3534 3535 3543 3542 3536 3537 3545 3544 3537 3538 3546 3545 3538 3539 3547 3546 3539 3540 3548 3547 3540 3541 3549 3548 3541 3542 3550 3549 3542 3543 3551 3550 3544 3545 3553 3552 3545 3546 3554 3553 3546 3547 3555 3554 3547 3548 3556 3555 3548 3549 3557 3556 3549 3550 3558 3557 3550 3551 3559 3558 3552 3553 3561 3560 3553 3554 3562 3561 3554 3555 3563 3562 3555 3556 3564 3563 3556 3557 3565 3564 3557 3558 3566 3565 3558 3559 3567 3566 3560 3561 3569 3568 3561 3562 3570 3569 3562 3563 3571 3570 3563 3564 3572 3571 3564 3565 3573 3572 3565 3566 3574 3573 3566 3567 3575 3574 3568 3569 3577 3576 3569 3570 3578 3577 3570 3571 3579 3578 3571 3572 3580 3579 3572 3573 3581 3580 3573 3574 3582 3581 3574 3575 3583 3582 3584 3585 3593 3592 3585 3586 3594 3593 3586 3587 3595 3594 3587 3588 3596 3595 3588 3589 3597 3596 3589 3590 3598 3597 3590 3591 3599 3598 3592 3593 3601 3600 3593 3594 3602 3601 3594 3595 3603 3602 3595 3596 3604 3603 3596 3597 3605 3604 3597 3598 3606 3605 3598 3599 3607 3606 3600 3601 3609 3608 3601 3602 3610 3609 3602 3603 3611 3610 3603 3604 3612 3611 3604 3605 3613 3612 3605 3606 3614 3613 3606 3607 3615 3614 3608 3609 3617 3616 3609 3610 3618 3617 3610 3611 3619 3618 3611 3612 3620 3619 3612 3613 3621 3620 3613 3614 3622 3621 3614 3615 3623 3622 3616 3617 3625 3624 3617 3618 3626 3625 3618 3619 3627 3626 3619 3620 3628 3627 3620 3621 3629 3628 3621 3622 3630 3629 3622 3623 3631 3630 3624 3625 3633 3632 3625 3626 3634 3633 3626 3627 3635 3634 3627 3628 3636 3635 3628 3629 3637 3636 3629 3630 3638 3637 3630 3631 3639 3638 3632 3633 3641 3640 3633 3634 3642 3641 3634 3635 3643 3642 3635 3636 3644 3643 3636 3637 3645 3644 3637 3638 3646 3645 3638 3639 3647 3646 3648 3649 3657 3656 3649 3650 3658 3657 3650 3651 3659 3658 3651 3652 3660 3659 3652 3653 3661 3660 3653 3654 3662 3661 3654 3655 3663 3662 3656 3657 3665 3664 3657 3658 3666 3665 3658 3659 3667 3666 3659 3660 3668 3667 3660 3661 3669 3668 3661 3662 3670 3669 3662 3663 3671 3670 3664 3665 3673 3672 3665 3666 3674 3673 3666 3667 3675 3674 3667 3668 3676 3675 3668 3669 3677 3676 3669 3670 3678 3677 3670 3671 3679 3678 3672 3673 3681 3680 3673 3674 3682 3681 3674 3675 3683 3682 3675 3676 3684 3683 3676 3677 3685 3684 3677 3678 3686 3685 3678 3679 3687 3686 3680 3681 3689 3688 3681 3682 3690 3689 3682 3683 3691 3690 3683 3684 3692 3691 3684 3685 3693 3692 3685 3686 3694 3693 3686 3687 3695 3694 3688 3689 3697 3696 3689 3690 3698 3697 3690 3691 3699 3698 3691 3692 3700 3699 3692 3693 3701 3700 3693 3694 3702 3701 3694 3695 3703 3702 3696 3697 3705 3704 3697 3698 3706 3705 3698 3699 3707 3706 3699 3700 3708 3707 3700 3701 3709 3708 3701 3702 3710 3709 3702 3703 3711 3710 3712 3713 3721 3720 3713 3714 3722 3721 3714 3715 3723 3722 3715 3716 3724 3723 3716 3717 3725 3724 3717 3718 3726 3725 3718 3719 3727 3726 3720 3721 3729 3728 3721 3722 3730 3729 3722 3723 3731 3730 3723 3724 3732 3731 3724 3725 3733 3732 3725 3726 3734 3733 3726 3727 3735 3734 3728 3729 3737 3736 3729 3730 3738 3737 3730 3731 3739 3738 3731 3732 3740 3739 3732 3733 3741 3740 3733 3734 3742 3741 3734 3735 3743 3742 3736 3737 3745 3744 3737 3738 3746 3745 3738 3739 3747 3746 3739 3740 3748 3747 3740 3741 3749 3748 3741 3742 3750 3749 3742 3743 3751 3750 3744 3745 3753 3752 3745 3746 3754 3753 3746 3747 3755 3754 3747 3748 3756 3755 3748 3749 3757 3756 3749 3750 3758 3757 3750 3751 3759 3758 3752 3753 3761 3760 3753 3754 3762 3761 3754 3755 3763 3762 3755 3756 3764 3763 3756 3757 3765 3764 3757 3758 3766 3765 3758 3759 3767 3766 3760 3761 3769 3768 3761 3762 3770 3769 3762 3763 3771 3770 3763 3764 3772 3771 3764 3765 3773 3772 3765 3766 3774 3773 3766 3767 3775 3774 3776 3777 3785 3784 3777 3778 3786 3785 3778 3779 3787 3786 3779 3780 3788 3787 3780 3781 3789 3788 3781 3782 3790 3789 3782 3783 3791 3790 3784 3785 3793 3792 3785 3786 3794 3793 3786 3787 3795 3794 3787 3788 3796 3795 3788 3789 3797 3796 3789 3790 3798 3797 3790 3791 3799 3798 3792 3793 3801 3800 3793 3794 3802 3801 3794 3795 3803 3802 3795 3796 3804 3803 3796 3797 3805 3804 3797 3798 3806 3805 3798 3799 3807 3806 3800 3801 3809 3808 3801 3802 3810 3809 3802 3803 3811 3810 3803 3804 3812 3811 3804 3805 3813 3812 3805 3806 3814 3813 3806 3807 3815 3814 3808 3809 3817 3816 3809 3810 3818 3817 3810 3811 3819 3818 3811 3812 3820 3819 3812 3813 3821 3820 3813 3814 3822 3821 3814 3815 3823 3822 3816 3817 3825 3824 3817 3818 3826 3825 3818 3819 3827 3826 3819 3820 3828 3827 3820 3821 3829 3828 3821 3822 3830 3829 3822 3823 3831 3830 3824 3825 3833 3832 3825 3826 3834 3833 3826 3827 3835 3834 3827 3828 3836 3835 3828 3829 3837 3836 3829 3830 3838 3837 3830 3831 3839 3838 3840 3841 3849 3848 3841 3842 3850 3849 3842 3843 3851 3850 3843 3844 3852 3851 3844 3845 3853 3852 3845 3846 3854 3853 3846 3847 3855 3854 3848 3849 3857 3856 3849 3850 3858 3857 3850 3851 3859 3858 3851 3852 3860 3859 3852 3853 3861 3860 3853 3854 3862 3861 3854 3855 3863 3862 3856 3857 3865 3864 3857 3858 3866 3865 3858 3859 3867 3866 3859 3860 3868 3867 3860 3861 3869 3868 3861 3862 3870 3869 3862 3863 3871 3870 3864 3865 3873 3872 3865 3866 3874 3873 3866 3867 3875 3874 3867 3868 3876 3875 3868 3869 3877 3876 3869 3870 3878 3877 3870 3871 3879 3878 3872 3873 3881 3880 3873 3874 3882 3881 3874 3875 3883 3882 3875 3876 3884 3883 3876 3877 3885 3884 3877 3878 3886 3885 3878 3879 3887 3886 3880 3881 3889 3888 3881 3882 3890 3889 3882 3883 3891 3890 3883 3884 3892 3891 3884 3885 3893 3892 3885 3886 3894 3893 3886 3887 3895 3894 3888 3889 3897 3896 3889 3890 3898 3897 3890 3891 3899 3898 3891 3892 3900 3899 3892 3893 3901 3900 3893 3894 3902 3901 3894 3895 3903 3902 3904 3905 3913 3912 3905 3906 3914 3913 3906 3907 3915 3914 3907 3908 3916 3915 3908 3909 3917 3916 3909 3910 3918 3917 3910 3911 3919 3918 3912 3913 3921 3920 3913 3914 3922 3921 3914 3915 3923 3922 3915 3916 3924 3923 3916 3917 3925 3924 3917 3918 3926 3925 3918 3919 3927 3926 3920 3921 3929 3928 3921 3922 3930 3929 3922 3923 3931 3930 3923 3924 3932 3931 3924 3925 3933 3932 3925 3926 3934 3933 3926 3927 3935 3934 3928 3929 3937 3936 3929 3930 3938 3937 3930 3931 3939 3938 3931 3932 3940 3939 3932 3933 3941 3940 3933 3934 3942 3941 3934 3935 3943 3942 3936 3937 3945 3944 3937 3938 3946 3945 3938 3939 3947 3946 3939 3940 3948 3947 3940 3941 3949 3948 3941 3942 3950 3949 3942 3943 3951 3950 3944 3945 3953 3952 3945 3946 3954 3953 3946 3947 3955 3954 3947 3948 3956 3955 3948 3949 3957 3956 3949 3950 3958 3957 3950 3951 3959 3958 3952 3953 3961 3960 3953 3954 3962 3961 3954 3955 3963 3962 3955 3956 3964 3963 3956 3957 3965 3964 3957 3958 3966 3965 3958 3959 3967 3966 3968 3969 3977 3976 3969 3970 3978 3977 3970 3971 3979 3978 3971 3972 3980 3979 3972 3973 3981 3980 3973 3974 3982 3981 3974 3975 3983 3982 3976 3977 3985 3984 3977 3978 3986 3985 3978 3979 3987 3986 3979 3980 3988 3987 3980 3981 3989 3988 3981 3982 3990 3989 3982 3983 3991 3990 3984 3985 3993 3992 3985 3986 3994 3993 3986 3987 3995 3994 3987 3988 3996 3995 3988 3989 3997 3996 3989 3990 3998 3997 3990 3991 3999 3998 3992 3993 4001 4000 3993 3994 4002 4001 3994 3995 4003 4002 3995 3996 4004 4003 3996 3997 4005 4004 3997 3998 4006 4005 3998 3999 4007 4006 4000 4001 4009 4008 4001 4002 4010 4009 4002 4003 4011 4010 4003 4004 4012 4011 4004 4005 4013 4012 4005 4006 4014 4013 4006 4007 4015 4014 4008 4009 4017 4016 4009 4010 4018 4017 4010 4011 4019 4018 4011 4012 4020 4019 4012 4013 4021 4020 4013 4014 4022 4021 4014 4015 4023 4022 4016 4017 4025 4024 4017 4018 4026 4025 4018 4019 4027 4026 4019 4020 4028 4027 4020 4021 4029 4028 4021 4022 4030 4029 4022 4023 4031 4030 4032 4033 4041 4040 4033 4034 4042 4041 4034 4035 4043 4042 4035 4036 4044 4043 4036 4037 4045 4044 4037 4038 4046 4045 4038 4039 4047 4046 4040 4041 4049 4048 4041 4042 4050 4049 4042 4043 4051 4050 4043 4044 4052 4051 4044 4045 4053 4052 4045 4046 4054 4053 4046 4047 4055 4054 4048 4049 4057 4056 4049 4050 4058 4057 4050 4051 4059 4058 4051 4052 4060 4059 4052 4053 4061 4060 4053 4054 4062 4061 4054 4055 4063 4062 4056 4057 4065 4064 4057 4058 4066 4065 4058 4059 4067 4066 4059 4060 4068 4067 4060 4061 4069 4068 4061 4062 4070 4069 4062 4063 4071 4070 4064 4065 4073 4072 4065 4066 4074 4073 4066 4067 4075 4074 4067 4068 4076 4075 4068 4069 4077 4076 4069 4070 4078 4077 4070 4071 4079 4078 4072 4073 4081 4080 4073 4074 4082 4081 4074 4075 4083 4082 4075 4076 4084 4083 4076 4077 4085 4084 4077 4078 4086 4085 4078 4079 4087 4086 4080 4081 4089 4088 4081 4082 4090 4089 4082 4083 4091 4090 4083 4084 4092 4091 4084 4085 4093 4092 4085 4086 4094 4093 4086 4087 4095 4094 4096 4097 4105 4104 4097 4098 4106 4105 4098 4099 4107 4106 4099 4100 4108 4107 4100 4101 4109 4108 4101 4102 4110 4109 4102 4103 4111 4110 4104 4105 4113 4112 4105 4106 4114 4113 4106 4107 4115 4114 4107 4108 4116 4115 4108 4109 4117 4116 4109 4110 4118 4117 4110 4111 4119 4118 4112 4113 4121 4120 4113 4114 4122 4121 4114 4115 4123 4122 4115 4116 4124 4123 4116 4117 4125 4124 4117 4118 4126 4125 4118 4119 4127 4126 4120 4121 4129 4128 4121 4122 4130 4129 4122 4123 4131 4130 4123 4124 4132 4131 4124 4125 4133 4132 4125 4126 4134 4133 4126 4127 4135 4134 4128 4129 4137 4136 4129 4130 4138 4137 4130 4131 4139 4138 4131 4132 4140 4139 4132 4133 4141 4140 4133 4134 4142 4141 4134 4135 4143 4142 4136 4137 4145 4144 4137 4138 4146 4145 4138 4139 4147 4146 4139 4140 4148 4147 4140 4141 4149 4148 4141 4142 4150 4149 4142 4143 4151 4150 4144 4145 4153 4152 4145 4146 4154 4153 4146 4147 4155 4154 4147 4148 4156 4155 4148 4149 4157 4156 4149 4150 4158 4157 4150 4151 4159 4158 4160 4161 4169 4168 4161 4162 4170 4169 4162 4163 4171 4170 4163 4164 4172 4171 4164 4165 4173 4172 4165 4166 4174 4173 4166 4167 4175 4174 4168 4169 4177 4176 4169 4170 4178 4177 4170 4171 4179 4178 4171 4172 4180 4179 4172 4173 4181 4180 4173 4174 4182 4181 4174 4175 4183 4182 4176 4177 4185 4184 4177 4178 4186 4185 4178 4179 4187 4186 4179 4180 4188 4187 4180 4181 4189 4188 4181 4182 4190 4189 4182 4183 4191 4190 4184 4185 4193 4192 4185 4186 4194 4193 4186 4187 4195 4194 4187 4188 4196 4195 4188 4189 4197 4196 4189 4190 4198 4197 4190 4191 4199 4198 4192 4193 4201 4200 4193 4194 4202 4201 4194 4195 4203 4202 4195 4196 4204 4203 4196 4197 4205 4204 4197 4198 4206 4205 4198 4199 4207 4206 4200 4201 4209 4208 4201 4202 4210 4209 4202 4203 4211 4210 4203 4204 4212 4211 4204 4205 4213 4212 4205 4206 4214 4213 4206 4207 4215 4214 4208 4209 4217 4216 4209 4210 4218 4217 4210 4211 4219 4218 4211 4212 4220 4219 4212 4213 4221 4220 4213 4214 4222 4221 4214 4215 4223 4222 4224 4225 4233 4232 4225 4226 4234 4233 4226 4227 4235 4234 4227 4228 4236 4235 4228 4229 4237 4236 4229 4230 4238 4237 4230 4231 4239 4238 4232 4233 4241 4240 4233 4234 4242 4241 4234 4235 4243 4242 4235 4236 4244 4243 4236 4237 4245 4244 4237 4238 4246 4245 4238 4239 4247 4246 4240 4241 4249 4248 4241 4242 4250 4249 4242 4243 4251 4250 4243 4244 4252 4251 4244 4245 4253 4252 4245 4246 4254 4253 4246 4247 4255 4254 4248 4249 4257 4256 4249 4250 4258 4257 4250 4251 4259 4258 4251 4252 4260 4259 4252 4253 4261 4260 4253 4254 4262 4261 4254 4255 4263 4262 4256 4257 4265 4264 4257 4258 4266 4265 4258 4259 4267 4266 4259 4260 4268 4267 4260 4261 4269 4268 4261 4262 4270 4269 4262 4263 4271 4270 4264 4265 4273 4272 4265 4266 4274 4273 4266 4267 4275 4274 4267 4268 4276 4275 4268 4269 4277 4276 4269 4270 4278 4277 4270 4271 4279 4278 4272 4273 4281 4280 4273 4274 4282 4281 4274 4275 4283 4282 4275 4276 4284 4283 4276 4277 4285 4284 4277 4278 4286 4285 4278 4279 4287 4286 4288 4289 4297 4296 4289 4290 4298 4297 4290 4291 4299 4298 4291 4292 4300 4299 4292 4293 4301 4300 4293 4294 4302 4301 4294 4295 4303 4302 4296 4297 4305 4304 4297 4298 4306 4305 4298 4299 4307 4306 4299 4300 4308 4307 4300 4301 4309 4308 4301 4302 4310 4309 4302 4303 4311 4310 4304 4305 4313 4312 4305 4306 4314 4313 4306 4307 4315 4314 4307 4308 4316 4315 4308 4309 4317 4316 4309 4310 4318 4317 4310 4311 4319 4318 4312 4313 4321 4320 4313 4314 4322 4321 4314 4315 4323 4322 4315 4316 4324 4323 4316 4317 4325 4324 4317 4318 4326 4325 4318 4319 4327 4326 4320 4321 4329 4328 4321 4322 4330 4329 4322 4323 4331 4330 4323 4324 4332 4331 4324 4325 4333 4332 4325 4326 4334 4333 4326 4327 4335 4334 4328 4329 4337 4336 4329 4330 4338 4337 4330 4331 4339 4338 4331 4332 4340 4339 4332 4333 4341 4340 4333 4334 4342 4341 4334 4335 4343 4342 4336 4337 4345 4344 4337 4338 4346 4345 4338 4339 4347 4346 4339 4340 4348 4347 4340 4341 4349 4348 4341 4342 4350 4349 4342 4343 4351 4350 4352 4353 4361 4360 4353 4354 4362 4361 4354 4355 4363 4362 4355 4356 4364 4363 4356 4357 4365 4364 4357 4358 4366 4365 4358 4359 4367 4366 4360 4361 4369 4368 4361 4362 4370 4369 4362 4363 4371 4370 4363 4364 4372 4371 4364 4365 4373 4372 4365 4366 4374 4373 4366 4367 4375 4374 4368 4369 4377 4376 4369 4370 4378 4377 4370 4371 4379 4378 4371 4372 4380 4379 4372 4373 4381 4380 4373 4374 4382 4381 4374 4375 4383 4382 4376 4377 4385 4384 4377 4378 4386 4385 4378 4379 4387 4386 4379 4380 4388 4387 4380 4381 4389 4388 4381 4382 4390 4389 4382 4383 4391 4390 4384 4385 4393 4392 4385 4386 4394 4393 4386 4387 4395 4394 4387 4388 4396 4395 4388 4389 4397 4396 4389 4390 4398 4397 4390 4391 4399 4398 4392 4393 4401 4400 4393 4394 4402 4401 4394 4395 4403 4402 4395 4396 4404 4403 4396 4397 4405 4404 4397 4398 4406 4405 4398 4399 4407 4406 4400 4401 4409 4408 4401 4402 4410 4409 4402 4403 4411 4410 4403 4404 4412 4411 4404 4405 4413 4412 4405 4406 4414 4413 4406 4407 4415 4414 4416 4417 4425 4424 4417 4418 4426 4425 4418 4419 4427 4426 4419 4420 4428 4427 4420 4421 4429 4428 4421 4422 4430 4429 4422 4423 4431 4430 4424 4425 4433 4432 4425 4426 4434 4433 4426 4427 4435 4434 4427 4428 4436 4435 4428 4429 4437 4436 4429 4430 4438 4437 4430 4431 4439 4438 4432 4433 4441 4440 4433 4434 4442 4441 4434 4435 4443 4442 4435 4436 4444 4443 4436 4437 4445 4444 4437 4438 4446 4445 4438 4439 4447 4446 4440 4441 4449 4448 4441 4442 4450 4449 4442 4443 4451 4450 4443 4444 4452 4451 4444 4445 4453 4452 4445 4446 4454 4453 4446 4447 4455 4454 4448 4449 4457 4456 4449 4450 4458 4457 4450 4451 4459 4458 4451 4452 4460 4459 4452 4453 4461 4460 4453 4454 4462 4461 4454 4455 4463 4462 4456 4457 4465 4464 4457 4458 4466 4465 4458 4459 4467 4466 4459 4460 4468 4467 4460 4461 4469 4468 4461 4462 4470 4469 4462 4463 4471 4470 4464 4465 4473 4472 4465 4466 4474 4473 4466 4467 4475 4474 4467 4468 4476 4475 4468 4469 4477 4476 4469 4470 4478 4477 4470 4471 4479 4478 4480 4481 4489 4488 4481 4482 4490 4489 4482 4483 4491 4490 4483 4484 4492 4491 4484 4485 4493 4492 4485 4486 4494 4493 4486 4487 4495 4494 4488 4489 4497 4496 4489 4490 4498 4497 4490 4491 4499 4498 4491 4492 4500 4499 4492 4493 4501 4500 4493 4494 4502 4501 4494 4495 4503 4502 4496 4497 4505 4504 4497 4498 4506 4505 4498 4499 4507 4506 4499 4500 4508 4507 4500 4501 4509 4508 4501 4502 4510 4509 4502 4503 4511 4510 4504 4505 4513 4512 4505 4506 4514 4513 4506 4507 4515 4514 4507 4508 4516 4515 4508 4509 4517 4516 4509 4510 4518 4517 4510 4511 4519 4518 4512 4513 4521 4520 4513 4514 4522 4521 4514 4515 4523 4522 4515 4516 4524 4523 4516 4517 4525 4524 4517 4518 4526 4525 4518 4519 4527 4526 4520 4521 4529 4528 4521 4522 4530 4529 4522 4523 4531 4530 4523 4524 4532 4531 4524 4525 4533 4532 4525 4526 4534 4533 4526 4527 4535 4534 4528 4529 4537 4536 4529 4530 4538 4537 4530 4531 4539 4538 4531 4532 4540 4539 4532 4533 4541 4540 4533 4534 4542 4541 4534 4535 4543 4542 4544 4545 4553 4552 4545 4546 4554 4553 4546 4547 4555 4554 4547 4548 4556 4555 4548 4549 4557 4556 4549 4550 4558 4557 4550 4551 4559 4558 4552 4553 4561 4560 4553 4554 4562 4561 4554 4555 4563 4562 4555 4556 4564 4563 4556 4557 4565 4564 4557 4558 4566 4565 4558 4559 4567 4566 4560 4561 4569 4568 4561 4562 4570 4569 4562 4563 4571 4570 4563 4564 4572 4571 4564 4565 4573 4572 4565 4566 4574 4573 4566 4567 4575 4574 4568 4569 4577 4576 4569 4570 4578 4577 4570 4571 4579 4578 4571 4572 4580 4579 4572 4573 4581 4580 4573 4574 4582 4581 4574 4575 4583 4582 4576 4577 4585 4584 4577 4578 4586 4585 4578 4579 4587 4586 4579 4580 4588 4587 4580 4581 4589 4588 4581 4582 4590 4589 4582 4583 4591 4590 4584 4585 4593 4592 4585 4586 4594 4593 4586 4587 4595 4594 4587 4588 4596 4595 4588 4589 4597 4596 4589 4590 4598 4597 4590 4591 4599 4598 4592 4593 4601 4600 4593 4594 4602 4601 4594 4595 4603 4602 4595 4596 4604 4603 4596 4597 4605 4604 4597 4598 4606 4605 4598 4599 4607 4606 4608 4609 4617 4616 4609 4610 4618 4617 4610 4611 4619 4618 4611 4612 4620 4619 4612 4613 4621 4620 4613 4614 4622 4621 4614 4615 4623 4622 4616 4617 4625 4624 4617 4618 4626 4625 4618 4619 4627 4626 4619 4620 4628 4627 4620 4621 4629 4628 4621 4622 4630 4629 4622 4623 4631 4630 4624 4625 4633 4632 4625 4626 4634 4633 4626 4627 4635 4634 4627 4628 4636 4635 4628 4629 4637 4636 4629 4630 4638 4637 4630 4631 4639 4638 4632 4633 4641 4640 4633 4634 4642 4641 4634 4635 4643 4642 4635 4636 4644 4643 4636 4637 4645 4644 4637 4638 4646 4645 4638 4639 4647 4646 4640 4641 4649 4648 4641 4642 4650 4649 4642 4643 4651 4650 4643 4644 4652 4651 4644 4645 4653 4652 4645 4646 4654 4653 4646 4647 4655 4654 4648 4649 4657 4656 4649 4650 4658 4657 4650 4651 4659 4658 4651 4652 4660 4659 4652 4653 4661 4660 4653 4654 4662 4661 4654 4655 4663 4662 4656 4657 4665 4664 4657 4658 4666 4665 4658 4659 4667 4666 4659 4660 4668 4667 4660 4661 4669 4668 4661 4662 4670 4669 4662 4663 4671 4670 4672 4673 4681 4680 4673 4674 4682 4681 4674 4675 4683 4682 4675 4676 4684 4683 4676 4677 4685 4684 4677 4678 4686 4685 4678 4679 4687 4686 4680 4681 4689 4688 4681 4682 4690 4689 4682 4683 4691 4690 4683 4684 4692 4691 4684 4685 4693 4692 4685 4686 4694 4693 4686 4687 4695 4694 4688 4689 4697 4696 4689 4690 4698 4697 4690 4691 4699 4698 4691 4692 4700 4699 4692 4693 4701 4700 4693 4694 4702 4701 4694 4695 4703 4702 4696 4697 4705 4704 4697 4698 4706 4705 4698 4699 4707 4706 4699 4700 4708 4707 4700 4701 4709 4708 4701 4702 4710 4709 4702 4703 4711 4710 4704 4705 4713 4712 4705 4706 4714 4713 4706 4707 4715 4714 4707 4708 4716 4715 4708 4709 4717 4716 4709 4710 4718 4717 4710 4711 4719 4718 4712 4713 4721 4720 4713 4714 4722 4721 4714 4715 4723 4722 4715 4716 4724 4723 4716 4717 4725 4724 4717 4718 4726 4725 4718 4719 4727 4726 4720 4721 4729 4728 4721 4722 4730 4729 4722 4723 4731 4730 4723 4724 4732 4731 4724 4725 4733 4732 4725 4726 4734 4733 4726 4727 4735 4734 4736 4737 4745 4744 4737 4738 4746 4745 4738 4739 4747 4746 4739 4740 4748 4747 4740 4741 4749 4748 4741 4742 4750 4749 4742 4743 4751 4750 4744 4745 4753 4752 4745 4746 4754 4753 4746 4747 4755 4754 4747 4748 4756 4755 4748 4749 4757 4756 4749 4750 4758 4757 4750 4751 4759 4758 4752 4753 4761 4760 4753 4754 4762 4761 4754 4755 4763 4762 4755 4756 4764 4763 4756 4757 4765 4764 4757 4758 4766 4765 4758 4759 4767 4766 4760 4761 4769 4768 4761 4762 4770 4769 4762 4763 4771 4770 4763 4764 4772 4771 4764 4765 4773 4772 4765 4766 4774 4773 4766 4767 4775 4774 4768 4769 4777 4776 4769 4770 4778 4777 4770 4771 4779 4778 4771 4772 4780 4779 4772 4773 4781 4780 4773 4774 4782 4781 4774 4775 4783 4782 4776 4777 4785 4784 4777 4778 4786 4785 4778 4779 4787 4786 4779 4780 4788 4787 4780 4781 4789 4788 4781 4782 4790 4789 4782 4783 4791 4790 4784 4785 4793 4792 4785 4786 4794 4793 4786 4787 4795 4794 4787 4788 4796 4795 4788 4789 4797 4796 4789 4790 4798 4797 4790 4791 4799 4798 4800 4801 4809 4808 4801 4802 4810 4809 4802 4803 4811 4810 4803 4804 4812 4811 4804 4805 4813 4812 4805 4806 4814 4813 4806 4807 4815 4814 4808 4809 4817 4816 4809 4810 4818 4817 4810 4811 4819 4818 4811 4812 4820 4819 4812 4813 4821 4820 4813 4814 4822 4821 4814 4815 4823 4822 4816 4817 4825 4824 4817 4818 4826 4825 4818 4819 4827 4826 4819 4820 4828 4827 4820 4821 4829 4828 4821 4822 4830 4829 4822 4823 4831 4830 4824 4825 4833 4832 4825 4826 4834 4833 4826 4827 4835 4834 4827 4828 4836 4835 4828 4829 4837 4836 4829 4830 4838 4837 4830 4831 4839 4838 4832 4833 4841 4840 4833 4834 4842 4841 4834 4835 4843 4842 4835 4836 4844 4843 4836 4837 4845 4844 4837 4838 4846 4845 4838 4839 4847 4846 4840 4841 4849 4848 4841 4842 4850 4849 4842 4843 4851 4850 4843 4844 4852 4851 4844 4845 4853 4852 4845 4846 4854 4853 4846 4847 4855 4854 4848 4849 4857 4856 4849 4850 4858 4857 4850 4851 4859 4858 4851 4852 4860 4859 4852 4853 4861 4860 4853 4854 4862 4861 4854 4855 4863 4862 4864 4865 4873 4872 4865 4866 4874 4873 4866 4867 4875 4874 4867 4868 4876 4875 4868 4869 4877 4876 4869 4870 4878 4877 4870 4871 4879 4878 4872 4873 4881 4880 4873 4874 4882 4881 4874 4875 4883 4882 4875 4876 4884 4883 4876 4877 4885 4884 4877 4878 4886 4885 4878 4879 4887 4886 4880 4881 4889 4888 4881 4882 4890 4889 4882 4883 4891 4890 4883 4884 4892 4891 4884 4885 4893 4892 4885 4886 4894 4893 4886 4887 4895 4894 4888 4889 4897 4896 4889 4890 4898 4897 4890 4891 4899 4898 4891 4892 4900 4899 4892 4893 4901 4900 4893 4894 4902 4901 4894 4895 4903 4902 4896 4897 4905 4904 4897 4898 4906 4905 4898 4899 4907 4906 4899 4900 4908 4907 4900 4901 4909 4908 4901 4902 4910 4909 4902 4903 4911 4910 4904 4905 4913 4912 4905 4906 4914 4913 4906 4907 4915 4914 4907 4908 4916 4915 4908 4909 4917 4916 4909 4910 4918 4917 4910 4911 4919 4918 4912 4913 4921 4920 4913 4914 4922 4921 4914 4915 4923 4922 4915 4916 4924 4923 4916 4917 4925 4924 4917 4918 4926 4925 4918 4919 4927 4926 4928 4929 4937 4936 4929 4930 4938 4937 4930 4931 4939 4938 4931 4932 4940 4939 4932 4933 4941 4940 4933 4934 4942 4941 4934 4935 4943 4942 4936 4937 4945 4944 4937 4938 4946 4945 4938 4939 4947 4946 4939 4940 4948 4947 4940 4941 4949 4948 4941 4942 4950 4949 4942 4943 4951 4950 4944 4945 4953 4952 4945 4946 4954 4953 4946 4947 4955 4954 4947 4948 4956 4955 4948 4949 4957 4956 4949 4950 4958 4957 4950 4951 4959 4958 4952 4953 4961 4960 4953 4954 4962 4961 4954 4955 4963 4962 4955 4956 4964 4963 4956 4957 4965 4964 4957 4958 4966 4965 4958 4959 4967 4966 4960 4961 4969 4968 4961 4962 4970 4969 4962 4963 4971 4970 4963 4964 4972 4971 4964 4965 4973 4972 4965 4966 4974 4973 4966 4967 4975 4974 4968 4969 4977 4976 4969 4970 4978 4977 4970 4971 4979 4978 4971 4972 4980 4979 4972 4973 4981 4980 4973 4974 4982 4981 4974 4975 4983 4982 4976 4977 4985 4984 4977 4978 4986 4985 4978 4979 4987 4986 4979 4980 4988 4987 4980 4981 4989 4988 4981 4982 4990 4989 4982 4983 4991 4990 4992 4993 5001 5000 4993 4994 5002 5001 4994 4995 5003 5002 4995 4996 5004 5003 4996 4997 5005 5004 4997 4998 5006 5005 4998 4999 5007 5006 5000 5001 5009 5008 5001 5002 5010 5009 5002 5003 5011 5010 5003 5004 5012 5011 5004 5005 5013 5012 5005 5006 5014 5013 5006 5007 5015 5014 5008 5009 5017 5016 5009 5010 5018 5017 5010 5011 5019 5018 5011 5012 5020 5019 5012 5013 5021 5020 5013 5014 5022 5021 5014 5015 5023 5022 5016 5017 5025 5024 5017 5018 5026 5025 5018 5019 5027 5026 5019 5020 5028 5027 5020 5021 5029 5028 5021 5022 5030 5029 5022 5023 5031 5030 5024 5025 5033 5032 5025 5026 5034 5033 5026 5027 5035 5034 5027 5028 5036 5035 5028 5029 5037 5036 5029 5030 5038 5037 5030 5031 5039 5038 5032 5033 5041 5040 5033 5034 5042 5041 5034 5035 5043 5042 5035 5036 5044 5043 5036 5037 5045 5044 5037 5038 5046 5045 5038 5039 5047 5046 5040 5041 5049 5048 5041 5042 5050 5049 5042 5043 5051 5050 5043 5044 5052 5051 5044 5045 5053 5052 5045 5046 5054 5053 5046 5047 5055 5054 5056 5057 5065 5064 5057 5058 5066 5065 5058 5059 5067 5066 5059 5060 5068 5067 5060 5061 5069 5068 5061 5062 5070 5069 5062 5063 5071 5070 5064 5065 5073 5072 5065 5066 5074 5073 5066 5067 5075 5074 5067 5068 5076 5075 5068 5069 5077 5076 5069 5070 5078 5077 5070 5071 5079 5078 5072 5073 5081 5080 5073 5074 5082 5081 5074 5075 5083 5082 5075 5076 5084 5083 5076 5077 5085 5084 5077 5078 5086 5085 5078 5079 5087 5086 5080 5081 5089 5088 5081 5082 5090 5089 5082 5083 5091 5090 5083 5084 5092 5091 5084 5085 5093 5092 5085 5086 5094 5093 5086 5087 5095 5094 5088 5089 5097 5096 5089 5090 5098 5097 5090 5091 5099 5098 5091 5092 5100 5099 5092 5093 5101 5100 5093 5094 5102 5101 5094 5095 5103 5102 5096 5097 5105 5104 5097 5098 5106 5105 5098 5099 5107 5106 5099 5100 5108 5107 5100 5101 5109 5108 5101 5102 5110 5109 5102 5103 5111 5110 5104 5105 5113 5112 5105 5106 5114 5113 5106 5107 5115 5114 5107 5108 5116 5115 5108 5109 5117 5116 5109 5110 5118 5117 5110 5111 5119 5118 5120 5121 5129 5128 5121 5122 5130 5129 5122 5123 5131 5130 5123 5124 5132 5131 5124 5125 5133 5132 5125 5126 5134 5133 5126 5127 5135 5134 5128 5129 5137 5136 5129 5130 5138 5137 5130 5131 5139 5138 5131 5132 5140 5139 5132 5133 5141 5140 5133 5134 5142 5141 5134 5135 5143 5142 5136 5137 5145 5144 5137 5138 5146 5145 5138 5139 5147 5146 5139 5140 5148 5147 5140 5141 5149 5148 5141 5142 5150 5149 5142 5143 5151 5150 5144 5145 5153 5152 5145 5146 5154 5153 5146 5147 5155 5154 5147 5148 5156 5155 5148 5149 5157 5156 5149 5150 5158 5157 5150 5151 5159 5158 5152 5153 5161 5160 5153 5154 5162 5161 5154 5155 5163 5162 5155 5156 5164 5163 5156 5157 5165 5164 5157 5158 5166 5165 5158 5159 5167 5166 5160 5161 5169 5168 5161 5162 5170 5169 5162 5163 5171 5170 5163 5164 5172 5171 5164 5165 5173 5172 5165 5166 5174 5173 5166 5167 5175 5174 5168 5169 5177 5176 5169 5170 5178 5177 5170 5171 5179 5178 5171 5172 5180 5179 5172 5173 5181 5180 5173 5174 5182 5181 5174 5175 5183 5182 5184 5185 5193 5192 5185 5186 5194 5193 5186 5187 5195 5194 5187 5188 5196 5195 5188 5189 5197 5196 5189 5190 5198 5197 5190 5191 5199 5198 5192 5193 5201 5200 5193 5194 5202 5201 5194 5195 5203 5202 5195 5196 5204 5203 5196 5197 5205 5204 5197 5198 5206 5205 5198 5199 5207 5206 5200 5201 5209 5208 5201 5202 5210 5209 5202 5203 5211 5210 5203 5204 5212 5211 5204 5205 5213 5212 5205 5206 5214 5213 5206 5207 5215 5214 5208 5209 5217 5216 5209 5210 5218 5217 5210 5211 5219 5218 5211 5212 5220 5219 5212 5213 5221 5220 5213 5214 5222 5221 5214 5215 5223 5222 5216 5217 5225 5224 5217 5218 5226 5225 5218 5219 5227 5226 5219 5220 5228 5227 5220 5221 5229 5228 5221 5222 5230 5229 5222 5223 5231 5230 5224 5225 5233 5232 5225 5226 5234 5233 5226 5227 5235 5234 5227 5228 5236 5235 5228 5229 5237 5236 5229 5230 5238 5237 5230 5231 5239 5238 5232 5233 5241 5240 5233 5234 5242 5241 5234 5235 5243 5242 5235 5236 5244 5243 5236 5237 5245 5244 5237 5238 5246 5245 5238 5239 5247 5246 5248 5249 5257 5256 5249 5250 5258 5257 5250 5251 5259 5258 5251 5252 5260 5259 5252 5253 5261 5260 5253 5254 5262 5261 5254 5255 5263 5262 5256 5257 5265 5264 5257 5258 5266 5265 5258 5259 5267 5266 5259 5260 5268 5267 5260 5261 5269 5268 5261 5262 5270 5269 5262 5263 5271 5270 5264 5265 5273 5272 5265 5266 5274 5273 5266 5267 5275 5274 5267 5268 5276 5275 5268 5269 5277 5276 5269 5270 5278 5277 5270 5271 5279 5278 5272 5273 5281 5280 5273 5274 5282 5281 5274 5275 5283 5282 5275 5276 5284 5283 5276 5277 5285 5284 5277 5278 5286 5285 5278 5279 5287 5286 5280 5281 5289 5288 5281 5282 5290 5289 5282 5283 5291 5290 5283 5284 5292 5291 5284 5285 5293 5292 5285 5286 5294 5293 5286 5287 5295 5294 5288 5289 5297 5296 5289 5290 5298 5297 5290 5291 5299 5298 5291 5292 5300 5299 5292 5293 5301 5300 5293 5294 5302 5301 5294 5295 5303 5302 5296 5297 5305 5304 5297 5298 5306 5305 5298 5299 5307 5306 5299 5300 5308 5307 5300 5301 5309 5308 5301 5302 5310 5309 5302 5303 5311 5310 5312 5313 5321 5320 5313 5314 5322 5321 5314 5315 5323 5322 5315 5316 5324 5323 5316 5317 5325 5324 5317 5318 5326 5325 5318 5319 5327 5326 5320 5321 5329 5328 5321 5322 5330 5329 5322 5323 5331 5330 5323 5324 5332 5331 5324 5325 5333 5332 5325 5326 5334 5333 5326 5327 5335 5334 5328 5329 5337 5336 5329 5330 5338 5337 5330 5331 5339 5338 5331 5332 5340 5339 5332 5333 5341 5340 5333 5334 5342 5341 5334 5335 5343 5342 5336 5337 5345 5344 5337 5338 5346 5345 5338 5339 5347 5346 5339 5340 5348 5347 5340 5341 5349 5348 5341 5342 5350 5349 5342 5343 5351 5350 5344 5345 5353 5352 5345 5346 5354 5353 5346 5347 5355 5354 5347 5348 5356 5355 5348 5349 5357 5356 5349 5350 5358 5357 5350 5351 5359 5358 5352 5353 5361 5360 5353 5354 5362 5361 5354 5355 5363 5362 5355 5356 5364 5363 5356 5357 5365 5364 5357 5358 5366 5365 5358 5359 5367 5366 5360 5361 5369 5368 5361 5362 5370 5369 5362 5363 5371 5370 5363 5364 5372 5371 5364 5365 5373 5372 5365 5366 5374 5373 5366 5367 5375 5374 5376 5377 5385 5384 5377 5378 5386 5385 5378 5379 5387 5386 5379 5380 5388 5387 5380 5381 5389 5388 5381 5382 5390 5389 5382 5383 5391 5390 5384 5385 5393 5392 5385 5386 5394 5393 5386 5387 5395 5394 5387 5388 5396 5395 5388 5389 5397 5396 5389 5390 5398 5397 5390 5391 5399 5398 5392 5393 5401 5400 5393 5394 5402 5401 5394 5395 5403 5402 5395 5396 5404 5403 5396 5397 5405 5404 5397 5398 5406 5405 5398 5399 5407 5406 5400 5401 5409 5408 5401 5402 5410 5409 5402 5403 5411 5410 5403 5404 5412 5411 5404 5405 5413 5412 5405 5406 5414 5413 5406 5407 5415 5414 5408 5409 5417 5416 5409 5410 5418 5417 5410 5411 5419 5418 5411 5412 5420 5419 5412 5413 5421 5420 5413 5414 5422 5421 5414 5415 5423 5422 5416 5417 5425 5424 5417 5418 5426 5425 5418 5419 5427 5426 5419 5420 5428 5427 5420 5421 5429 5428 5421 5422 5430 5429 5422 5423 5431 5430 5424 5425 5433 5432 5425 5426 5434 5433 5426 5427 5435 5434 5427 5428 5436 5435 5428 5429 5437 5436 5429 5430 5438 5437 5430 5431 5439 5438 5440 5441 5449 5448 5441 5442 5450 5449 5442 5443 5451 5450 5443 5444 5452 5451 5444 5445 5453 5452 5445 5446 5454 5453 5446 5447 5455 5454 5448 5449 5457 5456 5449 5450 5458 5457 5450 5451 5459 5458 5451 5452 5460 5459 5452 5453 5461 5460 5453 5454 5462 5461 5454 5455 5463 5462 5456 5457 5465 5464 5457 5458 5466 5465 5458 5459 5467 5466 5459 5460 5468 5467 5460 5461 5469 5468 5461 5462 5470 5469 5462 5463 5471 5470 5464 5465 5473 5472 5465 5466 5474 5473 5466 5467 5475 5474 5467 5468 5476 5475 5468 5469 5477 5476 5469 5470 5478 5477 5470 5471 5479 5478 5472 5473 5481 5480 5473 5474 5482 5481 5474 5475 5483 5482 5475 5476 5484 5483 5476 5477 5485 5484 5477 5478 5486 5485 5478 5479 5487 5486 5480 5481 5489 5488 5481 5482 5490 5489 5482 5483 5491 5490 5483 5484 5492 5491 5484 5485 5493 5492 5485 5486 5494 5493 5486 5487 5495 5494 5488 5489 5497 5496 5489 5490 5498 5497 5490 5491 5499 5498 5491 5492 5500 5499 5492 5493 5501 5500 5493 5494 5502 5501 5494 5495 5503 5502 5504 5505 5513 5512 5505 5506 5514 5513 5506 5507 5515 5514 5507 5508 5516 5515 5508 5509 5517 5516 5509 5510 5518 5517 5510 5511 5519 5518 5512 5513 5521 5520 5513 5514 5522 5521 5514 5515 5523 5522 5515 5516 5524 5523 5516 5517 5525 5524 5517 5518 5526 5525 5518 5519 5527 5526 5520 5521 5529 5528 5521 5522 5530 5529 5522 5523 5531 5530 5523 5524 5532 5531 5524 5525 5533 5532 5525 5526 5534 5533 5526 5527 5535 5534 5528 5529 5537 5536 5529 5530 5538 5537 5530 5531 5539 5538 5531 5532 5540 5539 5532 5533 5541 5540 5533 5534 5542 5541 5534 5535 5543 5542 5536 5537 5545 5544 5537 5538 5546 5545 5538 5539 5547 5546 5539 5540 5548 5547 5540 5541 5549 5548 5541 5542 5550 5549 5542 5543 5551 5550 5544 5545 5553 5552 5545 5546 5554 5553 5546 5547 5555 5554 5547 5548 5556 5555 5548 5549 5557 5556 5549 5550 5558 5557 5550 5551 5559 5558 5552 5553 5561 5560 5553 5554 5562 5561 5554 5555 5563 5562 5555 5556 5564 5563 5556 5557 5565 5564 5557 5558 5566 5565 5558 5559 5567 5566 5568 5569 5577 5576 5569 5570 5578 5577 5570 5571 5579 5578 5571 5572 5580 5579 5572 5573 5581 5580 5573 5574 5582 5581 5574 5575 5583 5582 5576 5577 5585 5584 5577 5578 5586 5585 5578 5579 5587 5586 5579 5580 5588 5587 5580 5581 5589 5588 5581 5582 5590 5589 5582 5583 5591 5590 5584 5585 5593 5592 5585 5586 5594 5593 5586 5587 5595 5594 5587 5588 5596 5595 5588 5589 5597 5596 5589 5590 5598 5597 5590 5591 5599 5598 5592 5593 5601 5600 5593 5594 5602 5601 5594 5595 5603 5602 5595 5596 5604 5603 5596 5597 5605 5604 5597 5598 5606 5605 5598 5599 5607 5606 5600 5601 5609 5608 5601 5602 5610 5609 5602 5603 5611 5610 5603 5604 5612 5611 5604 5605 5613 5612 5605 5606 5614 5613 5606 5607 5615 5614 5608 5609 5617 5616 5609 5610 5618 5617 5610 5611 5619 5618 5611 5612 5620 5619 5612 5613 5621 5620 5613 5614 5622 5621 5614 5615 5623 5622 5616 5617 5625 5624 5617 5618 5626 5625 5618 5619 5627 5626 5619 5620 5628 5627 5620 5621 5629 5628 5621 5622 5630 5629 5622 5623 5631 5630 5632 5633 5641 5640 5633 5634 5642 5641 5634 5635 5643 5642 5635 5636 5644 5643 5636 5637 5645 5644 5637 5638 5646 5645 5638 5639 5647 5646 5640 5641 5649 5648 5641 5642 5650 5649 5642 5643 5651 5650 5643 5644 5652 5651 5644 5645 5653 5652 5645 5646 5654 5653 5646 5647 5655 5654 5648 5649 5657 5656 5649 5650 5658 5657 5650 5651 5659 5658 5651 5652 5660 5659 5652 5653 5661 5660 5653 5654 5662 5661 5654 5655 5663 5662 5656 5657 5665 5664 5657 5658 5666 5665 5658 5659 5667 5666 5659 5660 5668 5667 5660 5661 5669 5668 5661 5662 5670 5669 5662 5663 5671 5670 5664 5665 5673 5672 5665 5666 5674 5673 5666 5667 5675 5674 5667 5668 5676 5675 5668 5669 5677 5676 5669 5670 5678 5677 5670 5671 5679 5678 5672 5673 5681 5680 5673 5674 5682 5681 5674 5675 5683 5682 5675 5676 5684 5683 5676 5677 5685 5684 5677 5678 5686 5685 5678 5679 5687 5686 5680 5681 5689 5688 5681 5682 5690 5689 5682 5683 5691 5690 5683 5684 5692 5691 5684 5685 5693 5692 5685 5686 5694 5693 5686 5687 5695 5694 5696 5697 5705 5704 5697 5698 5706 5705 5698 5699 5707 5706 5699 5700 5708 5707 5700 5701 5709 5708 5701 5702 5710 5709 5702 5703 5711 5710 5704 5705 5713 5712 5705 5706 5714 5713 5706 5707 5715 5714 5707 5708 5716 5715 5708 5709 5717 5716 5709 5710 5718 5717 5710 5711 5719 5718 5712 5713 5721 5720 5713 5714 5722 5721 5714 5715 5723 5722 5715 5716 5724 5723 5716 5717 5725 5724 5717 5718 5726 5725 5718 5719 5727 5726 5720 5721 5729 5728 5721 5722 5730 5729 5722 5723 5731 5730 5723 5724 5732 5731 5724 5725 5733 5732 5725 5726 5734 5733 5726 5727 5735 5734 5728 5729 5737 5736 5729 5730 5738 5737 5730 5731 5739 5738 5731 5732 5740 5739 5732 5733 5741 5740 5733 5734 5742 5741 5734 5735 5743 5742 5736 5737 5745 5744 5737 5738 5746 5745 5738 5739 5747 5746 5739 5740 5748 5747 5740 5741 5749 5748 5741 5742 5750 5749 5742 5743 5751 5750 5744 5745 5753 5752 5745 5746 5754 5753 5746 5747 5755 5754 5747 5748 5756 5755 5748 5749 5757 5756 5749 5750 5758 5757 5750 5751 5759 5758 5760 5761 5769 5768 5761 5762 5770 5769 5762 5763 5771 5770 5763 5764 5772 5771 5764 5765 5773 5772 5765 5766 5774 5773 5766 5767 5775 5774 5768 5769 5777 5776 5769 5770 5778 5777 5770 5771 5779 5778 5771 5772 5780 5779 5772 5773 5781 5780 5773 5774 5782 5781 5774 5775 5783 5782 5776 5777 5785 5784 5777 5778 5786 5785 5778 5779 5787 5786 5779 5780 5788 5787 5780 5781 5789 5788 5781 5782 5790 5789 5782 5783 5791 5790 5784 5785 5793 5792 5785 5786 5794 5793 5786 5787 5795 5794 5787 5788 5796 5795 5788 5789 5797 5796 5789 5790 5798 5797 5790 5791 5799 5798 5792 5793 5801 5800 5793 5794 5802 5801 5794 5795 5803 5802 5795 5796 5804 5803 5796 5797 5805 5804 5797 5798 5806 5805 5798 5799 5807 5806 5800 5801 5809 5808 5801 5802 5810 5809 5802 5803 5811 5810 5803 5804 5812 5811 5804 5805 5813 5812 5805 5806 5814 5813 5806 5807 5815 5814 5808 5809 5817 5816 5809 5810 5818 5817 5810 5811 5819 5818 5811 5812 5820 5819 5812 5813 5821 5820 5813 5814 5822 5821 5814 5815 5823 5822 5824 5825 5833 5832 5825 5826 5834 5833 5826 5827 5835 5834 5827 5828 5836 5835 5828 5829 5837 5836 5829 5830 5838 5837 5830 5831 5839 5838 5832 5833 5841 5840 5833 5834 5842 5841 5834 5835 5843 5842 5835 5836 5844 5843 5836 5837 5845 5844 5837 5838 5846 5845 5838 5839 5847 5846 5840 5841 5849 5848 5841 5842 5850 5849 5842 5843 5851 5850 5843 5844 5852 5851 5844 5845 5853 5852 5845 5846 5854 5853 5846 5847 5855 5854 5848 5849 5857 5856 5849 5850 5858 5857 5850 5851 5859 5858 5851 5852 5860 5859 5852 5853 5861 5860 5853 5854 5862 5861 5854 5855 5863 5862 5856 5857 5865 5864 5857 5858 5866 5865 5858 5859 5867 5866 5859 5860 5868 5867 5860 5861 5869 5868 5861 5862 5870 5869 5862 5863 5871 5870 5864 5865 5873 5872 5865 5866 5874 5873 5866 5867 5875 5874 5867 5868 5876 5875 5868 5869 5877 5876 5869 5870 5878 5877 5870 5871 5879 5878 5872 5873 5881 5880 5873 5874 5882 5881 5874 5875 5883 5882 5875 5876 5884 5883 5876 5877 5885 5884 5877 5878 5886 5885 5878 5879 5887 5886 5888 5889 5897 5896 5889 5890 5898 5897 5890 5891 5899 5898 5891 5892 5900 5899 5892 5893 5901 5900 5893 5894 5902 5901 5894 5895 5903 5902 5896 5897 5905 5904 5897 5898 5906 5905 5898 5899 5907 5906 5899 5900 5908 5907 5900 5901 5909 5908 5901 5902 5910 5909 5902 5903 5911 5910 5904 5905 5913 5912 5905 5906 5914 5913 5906 5907 5915 5914 5907 5908 5916 5915 5908 5909 5917 5916 5909 5910 5918 5917 5910 5911 5919 5918 5912 5913 5921 5920 5913 5914 5922 5921 5914 5915 5923 5922 5915 5916 5924 5923 5916 5917 5925 5924 5917 5918 5926 5925 5918 5919 5927 5926 5920 5921 5929 5928 5921 5922 5930 5929 5922 5923 5931 5930 5923 5924 5932 5931 5924 5925 5933 5932 5925 5926 5934 5933 5926 5927 5935 5934 5928 5929 5937 5936 5929 5930 5938 5937 5930 5931 5939 5938 5931 5932 5940 5939 5932 5933 5941 5940 5933 5934 5942 5941 5934 5935 5943 5942 5936 5937 5945 5944 5937 5938 5946 5945 5938 5939 5947 5946 5939 5940 5948 5947 5940 5941 5949 5948 5941 5942 5950 5949 5942 5943 5951 5950 5952 5953 5961 5960 5953 5954 5962 5961 5954 5955 5963 5962 5955 5956 5964 5963 5956 5957 5965 5964 5957 5958 5966 5965 5958 5959 5967 5966 5960 5961 5969 5968 5961 5962 5970 5969 5962 5963 5971 5970 5963 5964 5972 5971 5964 5965 5973 5972 5965 5966 5974 5973 5966 5967 5975 5974 5968 5969 5977 5976 5969 5970 5978 5977 5970 5971 5979 5978 5971 5972 5980 5979 5972 5973 5981 5980 5973 5974 5982 5981 5974 5975 5983 5982 5976 5977 5985 5984 5977 5978 5986 5985 5978 5979 5987 5986 5979 5980 5988 5987 5980 5981 5989 5988 5981 5982 5990 5989 5982 5983 5991 5990 5984 5985 5993 5992 5985 5986 5994 5993 5986 5987 5995 5994 5987 5988 5996 5995 5988 5989 5997 5996 5989 5990 5998 5997 5990 5991 5999 5998 5992 5993 6001 6000 5993 5994 6002 6001 5994 5995 6003 6002 5995 5996 6004 6003 5996 5997 6005 6004 5997 5998 6006 6005 5998 5999 6007 6006 6000 6001 6009 6008 6001 6002 6010 6009 6002 6003 6011 6010 6003 6004 6012 6011 6004 6005 6013 6012 6005 6006 6014 6013 6006 6007 6015 6014 6016 6017 6025 6024 6017 6018 6026 6025 6018 6019 6027 6026 6019 6020 6028 6027 6020 6021 6029 6028 6021 6022 6030 6029 6022 6023 6031 6030 6024 6025 6033 6032 6025 6026 6034 6033 6026 6027 6035 6034 6027 6028 6036 6035 6028 6029 6037 6036 6029 6030 6038 6037 6030 6031 6039 6038 6032 6033 6041 6040 6033 6034 6042 6041 6034 6035 6043 6042 6035 6036 6044 6043 6036 6037 6045 6044 6037 6038 6046 6045 6038 6039 6047 6046 6040 6041 6049 6048 6041 6042 6050 6049 6042 6043 6051 6050 6043 6044 6052 6051 6044 6045 6053 6052 6045 6046 6054 6053 6046 6047 6055 6054 6048 6049 6057 6056 6049 6050 6058 6057 6050 6051 6059 6058 6051 6052 6060 6059 6052 6053 6061 6060 6053 6054 6062 6061 6054 6055 6063 6062 6056 6057 6065 6064 6057 6058 6066 6065 6058 6059 6067 6066 6059 6060 6068 6067 6060 6061 6069 6068 6061 6062 6070 6069 6062 6063 6071 6070 6064 6065 6073 6072 6065 6066 6074 6073 6066 6067 6075 6074 6067 6068 6076 6075 6068 6069 6077 6076 6069 6070 6078 6077 6070 6071 6079 6078 6080 6081 6089 6088 6081 6082 6090 6089 6082 6083 6091 6090 6083 6084 6092 6091 6084 6085 6093 6092 6085 6086 6094 6093 6086 6087 6095 6094 6088 6089 6097 6096 6089 6090 6098 6097 6090 6091 6099 6098 6091 6092 6100 6099 6092 6093 6101 6100 6093 6094 6102 6101 6094 6095 6103 6102 6096 6097 6105 6104 6097 6098 6106 6105 6098 6099 6107 6106 6099 6100 6108 6107 6100 6101 6109 6108 6101 6102 6110 6109 6102 6103 6111 6110 6104 6105 6113 6112 6105 6106 6114 6113 6106 6107 6115 6114 6107 6108 6116 6115 6108 6109 6117 6116 6109 6110 6118 6117 6110 6111 6119 6118 6112 6113 6121 6120 6113 6114 6122 6121 6114 6115 6123 6122 6115 6116 6124 6123 6116 6117 6125 6124 6117 6118 6126 6125 6118 6119 6127 6126 6120 6121 6129 6128 6121 6122 6130 6129 6122 6123 6131 6130 6123 6124 6132 6131 6124 6125 6133 6132 6125 6126 6134 6133 6126 6127 6135 6134 6128 6129 6137 6136 6129 6130 6138 6137 6130 6131 6139 6138 6131 6132 6140 6139 6132 6133 6141 6140 6133 6134 6142 6141 6134 6135 6143 6142 6144 6145 6153 6152 6145 6146 6154 6153 6146 6147 6155 6154 6147 6148 6156 6155 6148 6149 6157 6156 6149 6150 6158 6157 6150 6151 6159 6158 6152 6153 6161 6160 6153 6154 6162 6161 6154 6155 6163 6162 6155 6156 6164 6163 6156 6157 6165 6164 6157 6158 6166 6165 6158 6159 6167 6166 6160 6161 6169 6168 6161 6162 6170 6169 6162 6163 6171 6170 6163 6164 6172 6171 6164 6165 6173 6172 6165 6166 6174 6173 6166 6167 6175 6174 6168 6169 6177 6176 6169 6170 6178 6177 6170 6171 6179 6178 6171 6172 6180 6179 6172 6173 6181 6180 6173 6174 6182 6181 6174 6175 6183 6182 6176 6177 6185 6184 6177 6178 6186 6185 6178 6179 6187 6186 6179 6180 6188 6187 6180 6181 6189 6188 6181 6182 6190 6189 6182 6183 6191 6190 6184 6185 6193 6192 6185 6186 6194 6193 6186 6187 6195 6194 6187 6188 6196 6195 6188 6189 6197 6196 6189 6190 6198 6197 6190 6191 6199 6198 6192 6193 6201 6200 6193 6194 6202 6201 6194 6195 6203 6202 6195 6196 6204 6203 6196 6197 6205 6204 6197 6198 6206 6205 6198 6199 6207 6206 6208 6209 6217 6216 6209 6210 6218 6217 6210 6211 6219 6218 6211 6212 6220 6219 6212 6213 6221 6220 6213 6214 6222 6221 6214 6215 6223 6222 6216 6217 6225 6224 6217 6218 6226 6225 6218 6219 6227 6226 6219 6220 6228 6227 6220 6221 6229 6228 6221 6222 6230 6229 6222 6223 6231 6230 6224 6225 6233 6232 6225 6226 6234 6233 6226 6227 6235 6234 6227 6228 6236 6235 6228 6229 6237 6236 6229 6230 6238 6237 6230 6231 6239 6238 6232 6233 6241 6240 6233 6234 6242 6241 6234 6235 6243 6242 6235 6236 6244 6243 6236 6237 6245 6244 6237 6238 6246 6245 6238 6239 6247 6246 6240 6241 6249 6248 6241 6242 6250 6249 6242 6243 6251 6250 6243 6244 6252 6251 6244 6245 6253 6252 6245 6246 6254 6253 6246 6247 6255 6254 6248 6249 6257 6256 6249 6250 6258 6257 6250 6251 6259 6258 6251 6252 6260 6259 6252 6253 6261 6260 6253 6254 6262 6261 6254 6255 6263 6262 6256 6257 6265 6264 6257 6258 6266 6265 6258 6259 6267 6266 6259 6260 6268 6267 6260 6261 6269 6268 6261 6262 6270 6269 6262 6263 6271 6270 6272 6273 6281 6280 6273 6274 6282 6281 6274 6275 6283 6282 6275 6276 6284 6283 6276 6277 6285 6284 6277 6278 6286 6285 6278 6279 6287 6286 6280 6281 6289 6288 6281 6282 6290 6289 6282 6283 6291 6290 6283 6284 6292 6291 6284 6285 6293 6292 6285 6286 6294 6293 6286 6287 6295 6294 6288 6289 6297 6296 6289 6290 6298 6297 6290 6291 6299 6298 6291 6292 6300 6299 6292 6293 6301 6300 6293 6294 6302 6301 6294 6295 6303 6302 6296 6297 6305 6304 6297 6298 6306 6305 6298 6299 6307 6306 6299 6300 6308 6307 6300 6301 6309 6308 6301 6302 6310 6309 6302 6303 6311 6310 6304 6305 6313 6312 6305 6306 6314 6313 6306 6307 6315 6314 6307 6308 6316 6315 6308 6309 6317 6316 6309 6310 6318 6317 6310 6311 6319 6318 6312 6313 6321 6320 6313 6314 6322 6321 6314 6315 6323 6322 6315 6316 6324 6323 6316 6317 6325 6324 6317 6318 6326 6325 6318 6319 6327 6326 6320 6321 6329 6328 6321 6322 6330 6329 6322 6323 6331 6330 6323 6324 6332 6331 6324 6325 6333 6332 6325 6326 6334 6333 6326 6327 6335 6334 6336 6337 6345 6344 6337 6338 6346 6345 6338 6339 6347 6346 6339 6340 6348 6347 6340 6341 6349 6348 6341 6342 6350 6349 6342 6343 6351 6350 6344 6345 6353 6352 6345 6346 6354 6353 6346 6347 6355 6354 6347 6348 6356 6355 6348 6349 6357 6356 6349 6350 6358 6357 6350 6351 6359 6358 6352 6353 6361 6360 6353 6354 6362 6361 6354 6355 6363 6362 6355 6356 6364 6363 6356 6357 6365 6364 6357 6358 6366 6365 6358 6359 6367 6366 6360 6361 6369 6368 6361 6362 6370 6369 6362 6363 6371 6370 6363 6364 6372 6371 6364 6365 6373 6372 6365 6366 6374 6373 6366 6367 6375 6374 6368 6369 6377 6376 6369 6370 6378 6377 6370 6371 6379 6378 6371 6372 6380 6379 6372 6373 6381 6380 6373 6374 6382 6381 6374 6375 6383 6382 6376 6377 6385 6384 6377 6378 6386 6385 6378 6379 6387 6386 6379 6380 6388 6387 6380 6381 6389 6388 6381 6382 6390 6389 6382 6383 6391 6390 6384 6385 6393 6392 6385 6386 6394 6393 6386 6387 6395 6394 6387 6388 6396 6395 6388 6389 6397 6396 6389 6390 6398 6397 6390 6391 6399 6398 6400 6401 6409 6408 6401 6402 6410 6409 6402 6403 6411 6410 6403 6404 6412 6411 6404 6405 6413 6412 6405 6406 6414 6413 6406 6407 6415 6414 6408 6409 6417 6416 6409 6410 6418 6417 6410 6411 6419 6418 6411 6412 6420 6419 6412 6413 6421 6420 6413 6414 6422 6421 6414 6415 6423 6422 6416 6417 6425 6424 6417 6418 6426 6425 6418 6419 6427 6426 6419 6420 6428 6427 6420 6421 6429 6428 6421 6422 6430 6429 6422 6423 6431 6430 6424 6425 6433 6432 6425 6426 6434 6433 6426 6427 6435 6434 6427 6428 6436 6435 6428 6429 6437 6436 6429 6430 6438 6437 6430 6431 6439 6438 6432 6433 6441 6440 6433 6434 6442 6441 6434 6435 6443 6442 6435 6436 6444 6443 6436 6437 6445 6444 6437 6438 6446 6445 6438 6439 6447 6446 6440 6441 6449 6448 6441 6442 6450 6449 6442 6443 6451 6450 6443 6444 6452 6451 6444 6445 6453 6452 6445 6446 6454 6453 6446 6447 6455 6454 6448 6449 6457 6456 6449 6450 6458 6457 6450 6451 6459 6458 6451 6452 6460 6459 6452 6453 6461 6460 6453 6454 6462 6461 6454 6455 6463 6462 6464 6465 6473 6472 6465 6466 6474 6473 6466 6467 6475 6474 6467 6468 6476 6475 6468 6469 6477 6476 6469 6470 6478 6477 6470 6471 6479 6478 6472 6473 6481 6480 6473 6474 6482 6481 6474 6475 6483 6482 6475 6476 6484 6483 6476 6477 6485 6484 6477 6478 6486 6485 6478 6479 6487 6486 6480 6481 6489 6488 6481 6482 6490 6489 6482 6483 6491 6490 6483 6484 6492 6491 6484 6485 6493 6492 6485 6486 6494 6493 6486 6487 6495 6494 6488 6489 6497 6496 6489 6490 6498 6497 6490 6491 6499 6498 6491 6492 6500 6499 6492 6493 6501 6500 6493 6494 6502 6501 6494 6495 6503 6502 6496 6497 6505 6504 6497 6498 6506 6505 6498 6499 6507 6506 6499 6500 6508 6507 6500 6501 6509 6508 6501 6502 6510 6509 6502 6503 6511 6510 6504 6505 6513 6512 6505 6506 6514 6513 6506 6507 6515 6514 6507 6508 6516 6515 6508 6509 6517 6516 6509 6510 6518 6517 6510 6511 6519 6518 6512 6513 6521 6520 6513 6514 6522 6521 6514 6515 6523 6522 6515 6516 6524 6523 6516 6517 6525 6524 6517 6518 6526 6525 6518 6519 6527 6526 6528 6529 6537 6536 6529 6530 6538 6537 6530 6531 6539 6538 6531 6532 6540 6539 6532 6533 6541 6540 6533 6534 6542 6541 6534 6535 6543 6542 6536 6537 6545 6544 6537 6538 6546 6545 6538 6539 6547 6546 6539 6540 6548 6547 6540 6541 6549 6548 6541 6542 6550 6549 6542 6543 6551 6550 6544 6545 6553 6552 6545 6546 6554 6553 6546 6547 6555 6554 6547 6548 6556 6555 6548 6549 6557 6556 6549 6550 6558 6557 6550 6551 6559 6558 6552 6553 6561 6560 6553 6554 6562 6561 6554 6555 6563 6562 6555 6556 6564 6563 6556 6557 6565 6564 6557 6558 6566 6565 6558 6559 6567 6566 6560 6561 6569 6568 6561 6562 6570 6569 6562 6563 6571 6570 6563 6564 6572 6571 6564 6565 6573 6572 6565 6566 6574 6573 6566 6567 6575 6574 6568 6569 6577 6576 6569 6570 6578 6577 6570 6571 6579 6578 6571 6572 6580 6579 6572 6573 6581 6580 6573 6574 6582 6581 6574 6575 6583 6582 6576 6577 6585 6584 6577 6578 6586 6585 6578 6579 6587 6586 6579 6580 6588 6587 6580 6581 6589 6588 6581 6582 6590 6589 6582 6583 6591 6590 6592 6593 6601 6600 6593 6594 6602 6601 6594 6595 6603 6602 6595 6596 6604 6603 6596 6597 6605 6604 6597 6598 6606 6605 6598 6599 6607 6606 6600 6601 6609 6608 6601 6602 6610 6609 6602 6603 6611 6610 6603 6604 6612 6611 6604 6605 6613 6612 6605 6606 6614 6613 6606 6607 6615 6614 6608 6609 6617 6616 6609 6610 6618 6617 6610 6611 6619 6618 6611 6612 6620 6619 6612 6613 6621 6620 6613 6614 6622 6621 6614 6615 6623 6622 6616 6617 6625 6624 6617 6618 6626 6625 6618 6619 6627 6626 6619 6620 6628 6627 6620 6621 6629 6628 6621 6622 6630 6629 6622 6623 6631 6630 6624 6625 6633 6632 6625 6626 6634 6633 6626 6627 6635 6634 6627 6628 6636 6635 6628 6629 6637 6636 6629 6630 6638 6637 6630 6631 6639 6638 6632 6633 6641 6640 6633 6634 6642 6641 6634 6635 6643 6642 6635 6636 6644 6643 6636 6637 6645 6644 6637 6638 6646 6645 6638 6639 6647 6646 6640 6641 6649 6648 6641 6642 6650 6649 6642 6643 6651 6650 6643 6644 6652 6651 6644 6645 6653 6652 6645 6646 6654 6653 6646 6647 6655 6654 6656 6657 6665 6664 6657 6658 6666 6665 6658 6659 6667 6666 6659 6660 6668 6667 6660 6661 6669 6668 6661 6662 6670 6669 6662 6663 6671 6670 6664 6665 6673 6672 6665 6666 6674 6673 6666 6667 6675 6674 6667 6668 6676 6675 6668 6669 6677 6676 6669 6670 6678 6677 6670 6671 6679 6678 6672 6673 6681 6680 6673 6674 6682 6681 6674 6675 6683 6682 6675 6676 6684 6683 6676 6677 6685 6684 6677 6678 6686 6685 6678 6679 6687 6686 6680 6681 6689 6688 6681 6682 6690 6689 6682 6683 6691 6690 6683 6684 6692 6691 6684 6685 6693 6692 6685 6686 6694 6693 6686 6687 6695 6694 6688 6689 6697 6696 6689 6690 6698 6697 6690 6691 6699 6698 6691 6692 6700 6699 6692 6693 6701 6700 6693 6694 6702 6701 6694 6695 6703 6702 6696 6697 6705 6704 6697 6698 6706 6705 6698 6699 6707 6706 6699 6700 6708 6707 6700 6701 6709 6708 6701 6702 6710 6709 6702 6703 6711 6710 6704 6705 6713 6712 6705 6706 6714 6713 6706 6707 6715 6714 6707 6708 6716 6715 6708 6709 6717 6716 6709 6710 6718 6717 6710 6711 6719 6718 6720 6721 6729 6728 6721 6722 6730 6729 6722 6723 6731 6730 6723 6724 6732 6731 6724 6725 6733 6732 6725 6726 6734 6733 6726 6727 6735 6734 6728 6729 6737 6736 6729 6730 6738 6737 6730 6731 6739 6738 6731 6732 6740 6739 6732 6733 6741 6740 6733 6734 6742 6741 6734 6735 6743 6742 6736 6737 6745 6744 6737 6738 6746 6745 6738 6739 6747 6746 6739 6740 6748 6747 6740 6741 6749 6748 6741 6742 6750 6749 6742 6743 6751 6750 6744 6745 6753 6752 6745 6746 6754 6753 6746 6747 6755 6754 6747 6748 6756 6755 6748 6749 6757 6756 6749 6750 6758 6757 6750 6751 6759 6758 6752 6753 6761 6760 6753 6754 6762 6761 6754 6755 6763 6762 6755 6756 6764 6763 6756 6757 6765 6764 6757 6758 6766 6765 6758 6759 6767 6766 6760 6761 6769 6768 6761 6762 6770 6769 6762 6763 6771 6770 6763 6764 6772 6771 6764 6765 6773 6772 6765 6766 6774 6773 6766 6767 6775 6774 6768 6769 6777 6776 6769 6770 6778 6777 6770 6771 6779 6778 6771 6772 6780 6779 6772 6773 6781 6780 6773 6774 6782 6781 6774 6775 6783 6782 6784 6785 6793 6792 6785 6786 6794 6793 6786 6787 6795 6794 6787 6788 6796 6795 6788 6789 6797 6796 6789 6790 6798 6797 6790 6791 6799 6798 6792 6793 6801 6800 6793 6794 6802 6801 6794 6795 6803 6802 6795 6796 6804 6803 6796 6797 6805 6804 6797 6798 6806 6805 6798 6799 6807 6806 6800 6801 6809 6808 6801 6802 6810 6809 6802 6803 6811 6810 6803 6804 6812 6811 6804 6805 6813 6812 6805 6806 6814 6813 6806 6807 6815 6814 6808 6809 6817 6816 6809 6810 6818 6817 6810 6811 6819 6818 6811 6812 6820 6819 6812 6813 6821 6820 6813 6814 6822 6821 6814 6815 6823 6822 6816 6817 6825 6824 6817 6818 6826 6825 6818 6819 6827 6826 6819 6820 6828 6827 6820 6821 6829 6828 6821 6822 6830 6829 6822 6823 6831 6830 6824 6825 6833 6832 6825 6826 6834 6833 6826 6827 6835 6834 6827 6828 6836 6835 6828 6829 6837 6836 6829 6830 6838 6837 6830 6831 6839 6838 6832 6833 6841 6840 6833 6834 6842 6841 6834 6835 6843 6842 6835 6836 6844 6843 6836 6837 6845 6844 6837 6838 6846 6845 6838 6839 6847 6846 6848 6849 6857 6856 6849 6850 6858 6857 6850 6851 6859 6858 6851 6852 6860 6859 6852 6853 6861 6860 6853 6854 6862 6861 6854 6855 6863 6862 6856 6857 6865 6864 6857 6858 6866 6865 6858 6859 6867 6866 6859 6860 6868 6867 6860 6861 6869 6868 6861 6862 6870 6869 6862 6863 6871 6870 6864 6865 6873 6872 6865 6866 6874 6873 6866 6867 6875 6874 6867 6868 6876 6875 6868 6869 6877 6876 6869 6870 6878 6877 6870 6871 6879 6878 6872 6873 6881 6880 6873 6874 6882 6881 6874 6875 6883 6882 6875 6876 6884 6883 6876 6877 6885 6884 6877 6878 6886 6885 6878 6879 6887 6886 6880 6881 6889 6888 6881 6882 6890 6889 6882 6883 6891 6890 6883 6884 6892 6891 6884 6885 6893 6892 6885 6886 6894 6893 6886 6887 6895 6894 6888 6889 6897 6896 6889 6890 6898 6897 6890 6891 6899 6898 6891 6892 6900 6899 6892 6893 6901 6900 6893 6894 6902 6901 6894 6895 6903 6902 6896 6897 6905 6904 6897 6898 6906 6905 6898 6899 6907 6906 6899 6900 6908 6907 6900 6901 6909 6908 6901 6902 6910 6909 6902 6903 6911 6910 6912 6913 6921 6920 6913 6914 6922 6921 6914 6915 6923 6922 6915 6916 6924 6923 6916 6917 6925 6924 6917 6918 6926 6925 6918 6919 6927 6926 6920 6921 6929 6928 6921 6922 6930 6929 6922 6923 6931 6930 6923 6924 6932 6931 6924 6925 6933 6932 6925 6926 6934 6933 6926 6927 6935 6934 6928 6929 6937 6936 6929 6930 6938 6937 6930 6931 6939 6938 6931 6932 6940 6939 6932 6933 6941 6940 6933 6934 6942 6941 6934 6935 6943 6942 6936 6937 6945 6944 6937 6938 6946 6945 6938 6939 6947 6946 6939 6940 6948 6947 6940 6941 6949 6948 6941 6942 6950 6949 6942 6943 6951 6950 6944 6945 6953 6952 6945 6946 6954 6953 6946 6947 6955 6954 6947 6948 6956 6955 6948 6949 6957 6956 6949 6950 6958 6957 6950 6951 6959 6958 6952 6953 6961 6960 6953 6954 6962 6961 6954 6955 6963 6962 6955 6956 6964 6963 6956 6957 6965 6964 6957 6958 6966 6965 6958 6959 6967 6966 6960 6961 6969 6968 6961 6962 6970 6969 6962 6963 6971 6970 6963 6964 6972 6971 6964 6965 6973 6972 6965 6966 6974 6973 6966 6967 6975 6974 6976 6977 6985 6984 6977 6978 6986 6985 6978 6979 6987 6986 6979 6980 6988 6987 6980 6981 6989 6988 6981 6982 6990 6989 6982 6983 6991 6990 6984 6985 6993 6992 6985 6986 6994 6993 6986 6987 6995 6994 6987 6988 6996 6995 6988 6989 6997 6996 6989 6990 6998 6997 6990 6991 6999 6998 6992 6993 7001 7000 6993 6994 7002 7001 6994 6995 7003 7002 6995 6996 7004 7003 6996 6997 7005 7004 6997 6998 7006 7005 6998 6999 7007 7006 7000 7001 7009 7008 7001 7002 7010 7009 7002 7003 7011 7010 7003 7004 7012 7011 7004 7005 7013 7012 7005 7006 7014 7013 7006 7007 7015 7014 7008 7009 7017 7016 7009 7010 7018 7017 7010 7011 7019 7018 7011 7012 7020 7019 7012 7013 7021 7020 7013 7014 7022 7021 7014 7015 7023 7022 7016 7017 7025 7024 7017 7018 7026 7025 7018 7019 7027 7026 7019 7020 7028 7027 7020 7021 7029 7028 7021 7022 7030 7029 7022 7023 7031 7030 7024 7025 7033 7032 7025 7026 7034 7033 7026 7027 7035 7034 7027 7028 7036 7035 7028 7029 7037 7036 7029 7030 7038 7037 7030 7031 7039 7038 7040 7041 7049 7048 7041 7042 7050 7049 7042 7043 7051 7050 7043 7044 7052 7051 7044 7045 7053 7052 7045 7046 7054 7053 7046 7047 7055 7054 7048 7049 7057 7056 7049 7050 7058 7057 7050 7051 7059 7058 7051 7052 7060 7059 7052 7053 7061 7060 7053 7054 7062 7061 7054 7055 7063 7062 7056 7057 7065 7064 7057 7058 7066 7065 7058 7059 7067 7066 7059 7060 7068 7067 7060 7061 7069 7068 7061 7062 7070 7069 7062 7063 7071 7070 7064 7065 7073 7072 7065 7066 7074 7073 7066 7067 7075 7074 7067 7068 7076 7075 7068 7069 7077 7076 7069 7070 7078 7077 7070 7071 7079 7078 7072 7073 7081 7080 7073 7074 7082 7081 7074 7075 7083 7082 7075 7076 7084 7083 7076 7077 7085 7084 7077 7078 7086 7085 7078 7079 7087 7086 7080 7081 7089 7088 7081 7082 7090 7089 7082 7083 7091 7090 7083 7084 7092 7091 7084 7085 7093 7092 7085 7086 7094 7093 7086 7087 7095 7094 7088 7089 7097 7096 7089 7090 7098 7097 7090 7091 7099 7098 7091 7092 7100 7099 7092 7093 7101 7100 7093 7094 7102 7101 7094 7095 7103 7102 7104 7105 7113 7112 7105 7106 7114 7113 7106 7107 7115 7114 7107 7108 7116 7115 7108 7109 7117 7116 7109 7110 7118 7117 7110 7111 7119 7118 7112 7113 7121 7120 7113 7114 7122 7121 7114 7115 7123 7122 7115 7116 7124 7123 7116 7117 7125 7124 7117 7118 7126 7125 7118 7119 7127 7126 7120 7121 7129 7128 7121 7122 7130 7129 7122 7123 7131 7130 7123 7124 7132 7131 7124 7125 7133 7132 7125 7126 7134 7133 7126 7127 7135 7134 7128 7129 7137 7136 7129 7130 7138 7137 7130 7131 7139 7138 7131 7132 7140 7139 7132 7133 7141 7140 7133 7134 7142 7141 7134 7135 7143 7142 7136 7137 7145 7144 7137 7138 7146 7145 7138 7139 7147 7146 7139 7140 7148 7147 7140 7141 7149 7148 7141 7142 7150 7149 7142 7143 7151 7150 7144 7145 7153 7152 7145 7146 7154 7153 7146 7147 7155 7154 7147 7148 7156 7155 7148 7149 7157 7156 7149 7150 7158 7157 7150 7151 7159 7158 7152 7153 7161 7160 7153 7154 7162 7161 7154 7155 7163 7162 7155 7156 7164 7163 7156 7157 7165 7164 7157 7158 7166 7165 7158 7159 7167 7166 7168 7169 7177 7176 7169 7170 7178 7177 7170 7171 7179 7178 7171 7172 7180 7179 7172 7173 7181 7180 7173 7174 7182 7181 7174 7175 7183 7182 7176 7177 7185 7184 7177 7178 7186 7185 7178 7179 7187 7186 7179 7180 7188 7187 7180 7181 7189 7188 7181 7182 7190 7189 7182 7183 7191 7190 7184 7185 7193 7192 7185 7186 7194 7193 7186 7187 7195 7194 7187 7188 7196 7195 7188 7189 7197 7196 7189 7190 7198 7197 7190 7191 7199 7198 7192 7193 7201 7200 7193 7194 7202 7201 7194 7195 7203 7202 7195 7196 7204 7203 7196 7197 7205 7204 7197 7198 7206 7205 7198 7199 7207 7206 7200 7201 7209 7208 7201 7202 7210 7209 7202 7203 7211 7210 7203 7204 7212 7211 7204 7205 7213 7212 7205 7206 7214 7213 7206 7207 7215 7214 7208 7209 7217 7216 7209 7210 7218 7217 7210 7211 7219 7218 7211 7212 7220 7219 7212 7213 7221 7220 7213 7214 7222 7221 7214 7215 7223 7222 7216 7217 7225 7224 7217 7218 7226 7225 7218 7219 7227 7226 7219 7220 7228 7227 7220 7221 7229 7228 7221 7222 7230 7229 7222 7223 7231 7230 7232 7233 7241 7240 7233 7234 7242 7241 7234 7235 7243 7242 7235 7236 7244 7243 7236 7237 7245 7244 7237 7238 7246 7245 7238 7239 7247 7246 7240 7241 7249 7248 7241 7242 7250 7249 7242 7243 7251 7250 7243 7244 7252 7251 7244 7245 7253 7252 7245 7246 7254 7253 7246 7247 7255 7254 7248 7249 7257 7256 7249 7250 7258 7257 7250 7251 7259 7258 7251 7252 7260 7259 7252 7253 7261 7260 7253 7254 7262 7261 7254 7255 7263 7262 7256 7257 7265 7264 7257 7258 7266 7265 7258 7259 7267 7266 7259 7260 7268 7267 7260 7261 7269 7268 7261 7262 7270 7269 7262 7263 7271 7270 7264 7265 7273 7272 7265 7266 7274 7273 7266 7267 7275 7274 7267 7268 7276 7275 7268 7269 7277 7276 7269 7270 7278 7277 7270 7271 7279 7278 7272 7273 7281 7280 7273 7274 7282 7281 7274 7275 7283 7282 7275 7276 7284 7283 7276 7277 7285 7284 7277 7278 7286 7285 7278 7279 7287 7286 7280 7281 7289 7288 7281 7282 7290 7289 7282 7283 7291 7290 7283 7284 7292 7291 7284 7285 7293 7292 7285 7286 7294 7293 7286 7287 7295 7294 7296 7297 7305 7304 7297 7298 7306 7305 7298 7299 7307 7306 7299 7300 7308 7307 7300 7301 7309 7308 7301 7302 7310 7309 7302 7303 7311 7310 7304 7305 7313 7312 7305 7306 7314 7313 7306 7307 7315 7314 7307 7308 7316 7315 7308 7309 7317 7316 7309 7310 7318 7317 7310 7311 7319 7318 7312 7313 7321 7320 7313 7314 7322 7321 7314 7315 7323 7322 7315 7316 7324 7323 7316 7317 7325 7324 7317 7318 7326 7325 7318 7319 7327 7326 7320 7321 7329 7328 7321 7322 7330 7329 7322 7323 7331 7330 7323 7324 7332 7331 7324 7325 7333 7332 7325 7326 7334 7333 7326 7327 7335 7334 7328 7329 7337 7336 7329 7330 7338 7337 7330 7331 7339 7338 7331 7332 7340 7339 7332 7333 7341 7340 7333 7334 7342 7341 7334 7335 7343 7342 7336 7337 7345 7344 7337 7338 7346 7345 7338 7339 7347 7346 7339 7340 7348 7347 7340 7341 7349 7348 7341 7342 7350 7349 7342 7343 7351 7350 7344 7345 7353 7352 7345 7346 7354 7353 7346 7347 7355 7354 7347 7348 7356 7355 7348 7349 7357 7356 7349 7350 7358 7357 7350 7351 7359 7358 7360 7361 7369 7368 7361 7362 7370 7369 7362 7363 7371 7370 7363 7364 7372 7371 7364 7365 7373 7372 7365 7366 7374 7373 7366 7367 7375 7374 7368 7369 7377 7376 7369 7370 7378 7377 7370 7371 7379 7378 7371 7372 7380 7379 7372 7373 7381 7380 7373 7374 7382 7381 7374 7375 7383 7382 7376 7377 7385 7384 7377 7378 7386 7385 7378 7379 7387 7386 7379 7380 7388 7387 7380 7381 7389 7388 7381 7382 7390 7389 7382 7383 7391 7390 7384 7385 7393 7392 7385 7386 7394 7393 7386 7387 7395 7394 7387 7388 7396 7395 7388 7389 7397 7396 7389 7390 7398 7397 7390 7391 7399 7398 7392 7393 7401 7400 7393 7394 7402 7401 7394 7395 7403 7402 7395 7396 7404 7403 7396 7397 7405 7404 7397 7398 7406 7405 7398 7399 7407 7406 7400 7401 7409 7408 7401 7402 7410 7409 7402 7403 7411 7410 7403 7404 7412 7411 7404 7405 7413 7412 7405 7406 7414 7413 7406 7407 7415 7414 7408 7409 7417 7416 7409 7410 7418 7417 7410 7411 7419 7418 7411 7412 7420 7419 7412 7413 7421 7420 7413 7414 7422 7421 7414 7415 7423 7422 7424 7425 7433 7432 7425 7426 7434 7433 7426 7427 7435 7434 7427 7428 7436 7435 7428 7429 7437 7436 7429 7430 7438 7437 7430 7431 7439 7438 7432 7433 7441 7440 7433 7434 7442 7441 7434 7435 7443 7442 7435 7436 7444 7443 7436 7437 7445 7444 7437 7438 7446 7445 7438 7439 7447 7446 7440 7441 7449 7448 7441 7442 7450 7449 7442 7443 7451 7450 7443 7444 7452 7451 7444 7445 7453 7452 7445 7446 7454 7453 7446 7447 7455 7454 7448 7449 7457 7456 7449 7450 7458 7457 7450 7451 7459 7458 7451 7452 7460 7459 7452 7453 7461 7460 7453 7454 7462 7461 7454 7455 7463 7462 7456 7457 7465 7464 7457 7458 7466 7465 7458 7459 7467 7466 7459 7460 7468 7467 7460 7461 7469 7468 7461 7462 7470 7469 7462 7463 7471 7470 7464 7465 7473 7472 7465 7466 7474 7473 7466 7467 7475 7474 7467 7468 7476 7475 7468 7469 7477 7476 7469 7470 7478 7477 7470 7471 7479 7478 7472 7473 7481 7480 7473 7474 7482 7481 7474 7475 7483 7482 7475 7476 7484 7483 7476 7477 7485 7484 7477 7478 7486 7485 7478 7479 7487 7486 7488 7489 7497 7496 7489 7490 7498 7497 7490 7491 7499 7498 7491 7492 7500 7499 7492 7493 7501 7500 7493 7494 7502 7501 7494 7495 7503 7502 7496 7497 7505 7504 7497 7498 7506 7505 7498 7499 7507 7506 7499 7500 7508 7507 7500 7501 7509 7508 7501 7502 7510 7509 7502 7503 7511 7510 7504 7505 7513 7512 7505 7506 7514 7513 7506 7507 7515 7514 7507 7508 7516 7515 7508 7509 7517 7516 7509 7510 7518 7517 7510 7511 7519 7518 7512 7513 7521 7520 7513 7514 7522 7521 7514 7515 7523 7522 7515 7516 7524 7523 7516 7517 7525 7524 7517 7518 7526 7525 7518 7519 7527 7526 7520 7521 7529 7528 7521 7522 7530 7529 7522 7523 7531 7530 7523 7524 7532 7531 7524 7525 7533 7532 7525 7526 7534 7533 7526 7527 7535 7534 7528 7529 7537 7536 7529 7530 7538 7537 7530 7531 7539 7538 7531 7532 7540 7539 7532 7533 7541 7540 7533 7534 7542 7541 7534 7535 7543 7542 7536 7537 7545 7544 7537 7538 7546 7545 7538 7539 7547 7546 7539 7540 7548 7547 7540 7541 7549 7548 7541 7542 7550 7549 7542 7543 7551 7550 7552 7553 7561 7560 7553 7554 7562 7561 7554 7555 7563 7562 7555 7556 7564 7563 7556 7557 7565 7564 7557 7558 7566 7565 7558 7559 7567 7566 7560 7561 7569 7568 7561 7562 7570 7569 7562 7563 7571 7570 7563 7564 7572 7571 7564 7565 7573 7572 7565 7566 7574 7573 7566 7567 7575 7574 7568 7569 7577 7576 7569 7570 7578 7577 7570 7571 7579 7578 7571 7572 7580 7579 7572 7573 7581 7580 7573 7574 7582 7581 7574 7575 7583 7582 7576 7577 7585 7584 7577 7578 7586 7585 7578 7579 7587 7586 7579 7580 7588 7587 7580 7581 7589 7588 7581 7582 7590 7589 7582 7583 7591 7590 7584 7585 7593 7592 7585 7586 7594 7593 7586 7587 7595 7594 7587 7588 7596 7595 7588 7589 7597 7596 7589 7590 7598 7597 7590 7591 7599 7598 7592 7593 7601 7600 7593 7594 7602 7601 7594 7595 7603 7602 7595 7596 7604 7603 7596 7597 7605 7604 7597 7598 7606 7605 7598 7599 7607 7606 7600 7601 7609 7608 7601 7602 7610 7609 7602 7603 7611 7610 7603 7604 7612 7611 7604 7605 7613 7612 7605 7606 7614 7613 7606 7607 7615 7614 7616 7617 7625 7624 7617 7618 7626 7625 7618 7619 7627 7626 7619 7620 7628 7627 7620 7621 7629 7628 7621 7622 7630 7629 7622 7623 7631 7630 7624 7625 7633 7632 7625 7626 7634 7633 7626 7627 7635 7634 7627 7628 7636 7635 7628 7629 7637 7636 7629 7630 7638 7637 7630 7631 7639 7638 7632 7633 7641 7640 7633 7634 7642 7641 7634 7635 7643 7642 7635 7636 7644 7643 7636 7637 7645 7644 7637 7638 7646 7645 7638 7639 7647 7646 7640 7641 7649 7648 7641 7642 7650 7649 7642 7643 7651 7650 7643 7644 7652 7651 7644 7645 7653 7652 7645 7646 7654 7653 7646 7647 7655 7654 7648 7649 7657 7656 7649 7650 7658 7657 7650 7651 7659 7658 7651 7652 7660 7659 7652 7653 7661 7660 7653 7654 7662 7661 7654 7655 7663 7662 7656 7657 7665 7664 7657 7658 7666 7665 7658 7659 7667 7666 7659 7660 7668 7667 7660 7661 7669 7668 7661 7662 7670 7669 7662 7663 7671 7670 7664 7665 7673 7672 7665 7666 7674 7673 7666 7667 7675 7674 7667 7668 7676 7675 7668 7669 7677 7676 7669 7670 7678 7677 7670 7671 7679 7678 7680 7681 7689 7688 7681 7682 7690 7689 7682 7683 7691 7690 7683 7684 7692 7691 7684 7685 7693 7692 7685 7686 7694 7693 7686 7687 7695 7694 7688 7689 7697 7696 7689 7690 7698 7697 7690 7691 7699 7698 7691 7692 7700 7699 7692 7693 7701 7700 7693 7694 7702 7701 7694 7695 7703 7702 7696 7697 7705 7704 7697 7698 7706 7705 7698 7699 7707 7706 7699 7700 7708 7707 7700 7701 7709 7708 7701 7702 7710 7709 7702 7703 7711 7710 7704 7705 7713 7712 7705 7706 7714 7713 7706 7707 7715 7714 7707 7708 7716 7715 7708 7709 7717 7716 7709 7710 7718 7717 7710 7711 7719 7718 7712 7713 7721 7720 7713 7714 7722 7721 7714 7715 7723 7722 7715 7716 7724 7723 7716 7717 7725 7724 7717 7718 7726 7725 7718 7719 7727 7726 7720 7721 7729 7728 7721 7722 7730 7729 7722 7723 7731 7730 7723 7724 7732 7731 7724 7725 7733 7732 7725 7726 7734 7733 7726 7727 7735 7734 7728 7729 7737 7736 7729 7730 7738 7737 7730 7731 7739 7738 7731 7732 7740 7739 7732 7733 7741 7740 7733 7734 7742 7741 7734 7735 7743 7742 7744 7745 7753 7752 7745 7746 7754 7753 7746 7747 7755 7754 7747 7748 7756 7755 7748 7749 7757 7756 7749 7750 7758 7757 7750 7751 7759 7758 7752 7753 7761 7760 7753 7754 7762 7761 7754 7755 7763 7762 7755 7756 7764 7763 7756 7757 7765 7764 7757 7758 7766 7765 7758 7759 7767 7766 7760 7761 7769 7768 7761 7762 7770 7769 7762 7763 7771 7770 7763 7764 7772 7771 7764 7765 7773 7772 7765 7766 7774 7773 7766 7767 7775 7774 7768 7769 7777 7776 7769 7770 7778 7777 7770 7771 7779 7778 7771 7772 7780 7779 7772 7773 7781 7780 7773 7774 7782 7781 7774 7775 7783 7782 7776 7777 7785 7784 7777 7778 7786 7785 7778 7779 7787 7786 7779 7780 7788 7787 7780 7781 7789 7788 7781 7782 7790 7789 7782 7783 7791 7790 7784 7785 7793 7792 7785 7786 7794 7793 7786 7787 7795 7794 7787 7788 7796 7795 7788 7789 7797 7796 7789 7790 7798 7797 7790 7791 7799 7798 7792 7793 7801 7800 7793 7794 7802 7801 7794 7795 7803 7802 7795 7796 7804 7803 7796 7797 7805 7804 7797 7798 7806 7805 7798 7799 7807 7806 7808 7809 7817 7816 7809 7810 7818 7817 7810 7811 7819 7818 7811 7812 7820 7819 7812 7813 7821 7820 7813 7814 7822 7821 7814 7815 7823 7822 7816 7817 7825 7824 7817 7818 7826 7825 7818 7819 7827 7826 7819 7820 7828 7827 7820 7821 7829 7828 7821 7822 7830 7829 7822 7823 7831 7830 7824 7825 7833 7832 7825 7826 7834 7833 7826 7827 7835 7834 7827 7828 7836 7835 7828 7829 7837 7836 7829 7830 7838 7837 7830 7831 7839 7838 7832 7833 7841 7840 7833 7834 7842 7841 7834 7835 7843 7842 7835 7836 7844 7843 7836 7837 7845 7844 7837 7838 7846 7845 7838 7839 7847 7846 7840 7841 7849 7848 7841 7842 7850 7849 7842 7843 7851 7850 7843 7844 7852 7851 7844 7845 7853 7852 7845 7846 7854 7853 7846 7847 7855 7854 7848 7849 7857 7856 7849 7850 7858 7857 7850 7851 7859 7858 7851 7852 7860 7859 7852 7853 7861 7860 7853 7854 7862 7861 7854 7855 7863 7862 7856 7857 7865 7864 7857 7858 7866 7865 7858 7859 7867 7866 7859 7860 7868 7867 7860 7861 7869 7868 7861 7862 7870 7869 7862 7863 7871 7870 7872 7873 7881 7880 7873 7874 7882 7881 7874 7875 7883 7882 7875 7876 7884 7883 7876 7877 7885 7884 7877 7878 7886 7885 7878 7879 7887 7886 7880 7881 7889 7888 7881 7882 7890 7889 7882 7883 7891 7890 7883 7884 7892 7891 7884 7885 7893 7892 7885 7886 7894 7893 7886 7887 7895 7894 7888 7889 7897 7896 7889 7890 7898 7897 7890 7891 7899 7898 7891 7892 7900 7899 7892 7893 7901 7900 7893 7894 7902 7901 7894 7895 7903 7902 7896 7897 7905 7904 7897 7898 7906 7905 7898 7899 7907 7906 7899 7900 7908 7907 7900 7901 7909 7908 7901 7902 7910 7909 7902 7903 7911 7910 7904 7905 7913 7912 7905 7906 7914 7913 7906 7907 7915 7914 7907 7908 7916 7915 7908 7909 7917 7916 7909 7910 7918 7917 7910 7911 7919 7918 7912 7913 7921 7920 7913 7914 7922 7921 7914 7915 7923 7922 7915 7916 7924 7923 7916 7917 7925 7924 7917 7918 7926 7925 7918 7919 7927 7926 7920 7921 7929 7928 7921 7922 7930 7929 7922 7923 7931 7930 7923 7924 7932 7931 7924 7925 7933 7932 7925 7926 7934 7933 7926 7927 7935 7934 7936 7937 7945 7944 7937 7938 7946 7945 7938 7939 7947 7946 7939 7940 7948 7947 7940 7941 7949 7948 7941 7942 7950 7949 7942 7943 7951 7950 7944 7945 7953 7952 7945 7946 7954 7953 7946 7947 7955 7954 7947 7948 7956 7955 7948 7949 7957 7956 7949 7950 7958 7957 7950 7951 7959 7958 7952 7953 7961 7960 7953 7954 7962 7961 7954 7955 7963 7962 7955 7956 7964 7963 7956 7957 7965 7964 7957 7958 7966 7965 7958 7959 7967 7966 7960 7961 7969 7968 7961 7962 7970 7969 7962 7963 7971 7970 7963 7964 7972 7971 7964 7965 7973 7972 7965 7966 7974 7973 7966 7967 7975 7974 7968 7969 7977 7976 7969 7970 7978 7977 7970 7971 7979 7978 7971 7972 7980 7979 7972 7973 7981 7980 7973 7974 7982 7981 7974 7975 7983 7982 7976 7977 7985 7984 7977 7978 7986 7985 7978 7979 7987 7986 7979 7980 7988 7987 7980 7981 7989 7988 7981 7982 7990 7989 7982 7983 7991 7990 7984 7985 7993 7992 7985 7986 7994 7993 7986 7987 7995 7994 7987 7988 7996 7995 7988 7989 7997 7996 7989 7990 7998 7997 7990 7991 7999 7998 8000 8001 8009 8008 8001 8002 8010 8009 8002 8003 8011 8010 8003 8004 8012 8011 8004 8005 8013 8012 8005 8006 8014 8013 8006 8007 8015 8014 8008 8009 8017 8016 8009 8010 8018 8017 8010 8011 8019 8018 8011 8012 8020 8019 8012 8013 8021 8020 8013 8014 8022 8021 8014 8015 8023 8022 8016 8017 8025 8024 8017 8018 8026 8025 8018 8019 8027 8026 8019 8020 8028 8027 8020 8021 8029 8028 8021 8022 8030 8029 8022 8023 8031 8030 8024 8025 8033 8032 8025 8026 8034 8033 8026 8027 8035 8034 8027 8028 8036 8035 8028 8029 8037 8036 8029 8030 8038 8037 8030 8031 8039 8038 8032 8033 8041 8040 8033 8034 8042 8041 8034 8035 8043 8042 8035 8036 8044 8043 8036 8037 8045 8044 8037 8038 8046 8045 8038 8039 8047 8046 8040 8041 8049 8048 8041 8042 8050 8049 8042 8043 8051 8050 8043 8044 8052 8051 8044 8045 8053 8052 8045 8046 8054 8053 8046 8047 8055 8054 8048 8049 8057 8056 8049 8050 8058 8057 8050 8051 8059 8058 8051 8052 8060 8059 8052 8053 8061 8060 8053 8054 8062 8061 8054 8055 8063 8062 8064 8065 8073 8072 8065 8066 8074 8073 8066 8067 8075 8074 8067 8068 8076 8075 8068 8069 8077 8076 8069 8070 8078 8077 8070 8071 8079 8078 8072 8073 8081 8080 8073 8074 8082 8081 8074 8075 8083 8082 8075 8076 8084 8083 8076 8077 8085 8084 8077 8078 8086 8085 8078 8079 8087 8086 8080 8081 8089 8088 8081 8082 8090 8089 8082 8083 8091 8090 8083 8084 8092 8091 8084 8085 8093 8092 8085 8086 8094 8093 8086 8087 8095 8094 8088 8089 8097 8096 8089 8090 8098 8097 8090 8091 8099 8098 8091 8092 8100 8099 8092 8093 8101 8100 8093 8094 8102 8101 8094 8095 8103 8102 8096 8097 8105 8104 8097 8098 8106 8105 8098 8099 8107 8106 8099 8100 8108 8107 8100 8101 8109 8108 8101 8102 8110 8109 8102 8103 8111 8110 8104 8105 8113 8112 8105 8106 8114 8113 8106 8107 8115 8114 8107 8108 8116 8115 8108 8109 8117 8116 8109 8110 8118 8117 8110 8111 8119 8118 8112 8113 8121 8120 8113 8114 8122 8121 8114 8115 8123 8122 8115 8116 8124 8123 8116 8117 8125 8124 8117 8118 8126 8125 8118 8119 8127 8126 8128 8129 8137 8136 8129 8130 8138 8137 8130 8131 8139 8138 8131 8132 8140 8139 8132 8133 8141 8140 8133 8134 8142 8141 8134 8135 8143 8142 8136 8137 8145 8144 8137 8138 8146 8145 8138 8139 8147 8146 8139 8140 8148 8147 8140 8141 8149 8148 8141 8142 8150 8149 8142 8143 8151 8150 8144 8145 8153 8152 8145 8146 8154 8153 8146 8147 8155 8154 8147 8148 8156 8155 8148 8149 8157 8156 8149 8150 8158 8157 8150 8151 8159 8158 8152 8153 8161 8160 8153 8154 8162 8161 8154 8155 8163 8162 8155 8156 8164 8163 8156 8157 8165 8164 8157 8158 8166 8165 8158 8159 8167 8166 8160 8161 8169 8168 8161 8162 8170 8169 8162 8163 8171 8170 8163 8164 8172 8171 8164 8165 8173 8172 8165 8166 8174 8173 8166 8167 8175 8174 8168 8169 8177 8176 8169 8170 8178 8177 8170 8171 8179 8178 8171 8172 8180 8179 8172 8173 8181 8180 8173 8174 8182 8181 8174 8175 8183 8182 8176 8177 8185 8184 8177 8178 8186 8185 8178 8179 8187 8186 8179 8180 8188 8187 8180 8181 8189 8188 8181 8182 8190 8189 8182 8183 8191 8190 8192 8193 8201 8200 8193 8194 8202 8201 8194 8195 8203 8202 8195 8196 8204 8203 8196 8197 8205 8204 8197 8198 8206 8205 8198 8199 8207 8206 8200 8201 8209 8208 8201 8202 8210 8209 8202 8203 8211 8210 8203 8204 8212 8211 8204 8205 8213 8212 8205 8206 8214 8213 8206 8207 8215 8214 8208 8209 8217 8216 8209 8210 8218 8217 8210 8211 8219 8218 8211 8212 8220 8219 8212 8213 8221 8220 8213 8214 8222 8221 8214 8215 8223 8222 8216 8217 8225 8224 8217 8218 8226 8225 8218 8219 8227 8226 8219 8220 8228 8227 8220 8221 8229 8228 8221 8222 8230 8229 8222 8223 8231 8230 8224 8225 8233 8232 8225 8226 8234 8233 8226 8227 8235 8234 8227 8228 8236 8235 8228 8229 8237 8236 8229 8230 8238 8237 8230 8231 8239 8238 8232 8233 8241 8240 8233 8234 8242 8241 8234 8235 8243 8242 8235 8236 8244 8243 8236 8237 8245 8244 8237 8238 8246 8245 8238 8239 8247 8246 8240 8241 8249 8248 8241 8242 8250 8249 8242 8243 8251 8250 8243 8244 8252 8251 8244 8245 8253 8252 8245 8246 8254 8253 8246 8247 8255 8254 8256 8257 8265 8264 8257 8258 8266 8265 8258 8259 8267 8266 8259 8260 8268 8267 8260 8261 8269 8268 8261 8262 8270 8269 8262 8263 8271 8270 8264 8265 8273 8272 8265 8266 8274 8273 8266 8267 8275 8274 8267 8268 8276 8275 8268 8269 8277 8276 8269 8270 8278 8277 8270 8271 8279 8278 8272 8273 8281 8280 8273 8274 8282 8281 8274 8275 8283 8282 8275 8276 8284 8283 8276 8277 8285 8284 8277 8278 8286 8285 8278 8279 8287 8286 8280 8281 8289 8288 8281 8282 8290 8289 8282 8283 8291 8290 8283 8284 8292 8291 8284 8285 8293 8292 8285 8286 8294 8293 8286 8287 8295 8294 8288 8289 8297 8296 8289 8290 8298 8297 8290 8291 8299 8298 8291 8292 8300 8299 8292 8293 8301 8300 8293 8294 8302 8301 8294 8295 8303 8302 8296 8297 8305 8304 8297 8298 8306 8305 8298 8299 8307 8306 8299 8300 8308 8307 8300 8301 8309 8308 8301 8302 8310 8309 8302 8303 8311 8310 8304 8305 8313 8312 8305 8306 8314 8313 8306 8307 8315 8314 8307 8308 8316 8315 8308 8309 8317 8316 8309 8310 8318 8317 8310 8311 8319 8318 8320 8321 8329 8328 8321 8322 8330 8329 8322 8323 8331 8330 8323 8324 8332 8331 8324 8325 8333 8332 8325 8326 8334 8333 8326 8327 8335 8334 8328 8329 8337 8336 8329 8330 8338 8337 8330 8331 8339 8338 8331 8332 8340 8339 8332 8333 8341 8340 8333 8334 8342 8341 8334 8335 8343 8342 8336 8337 8345 8344 8337 8338 8346 8345 8338 8339 8347 8346 8339 8340 8348 8347 8340 8341 8349 8348 8341 8342 8350 8349 8342 8343 8351 8350 8344 8345 8353 8352 8345 8346 8354 8353 8346 8347 8355 8354 8347 8348 8356 8355 8348 8349 8357 8356 8349 8350 8358 8357 8350 8351 8359 8358 8352 8353 8361 8360 8353 8354 8362 8361 8354 8355 8363 8362 8355 8356 8364 8363 8356 8357 8365 8364 8357 8358 8366 8365 8358 8359 8367 8366 8360 8361 8369 8368 8361 8362 8370 8369 8362 8363 8371 8370 8363 8364 8372 8371 8364 8365 8373 8372 8365 8366 8374 8373 8366 8367 8375 8374 8368 8369 8377 8376 8369 8370 8378 8377 8370 8371 8379 8378 8371 8372 8380 8379 8372 8373 8381 8380 8373 8374 8382 8381 8374 8375 8383 8382 8384 8385 8393 8392 8385 8386 8394 8393 8386 8387 8395 8394 8387 8388 8396 8395 8388 8389 8397 8396 8389 8390 8398 8397 8390 8391 8399 8398 8392 8393 8401 8400 8393 8394 8402 8401 8394 8395 8403 8402 8395 8396 8404 8403 8396 8397 8405 8404 8397 8398 8406 8405 8398 8399 8407 8406 8400 8401 8409 8408 8401 8402 8410 8409 8402 8403 8411 8410 8403 8404 8412 8411 8404 8405 8413 8412 8405 8406 8414 8413 8406 8407 8415 8414 8408 8409 8417 8416 8409 8410 8418 8417 8410 8411 8419 8418 8411 8412 8420 8419 8412 8413 8421 8420 8413 8414 8422 8421 8414 8415 8423 8422 8416 8417 8425 8424 8417 8418 8426 8425 8418 8419 8427 8426 8419 8420 8428 8427 8420 8421 8429 8428 8421 8422 8430 8429 8422 8423 8431 8430 8424 8425 8433 8432 8425 8426 8434 8433 8426 8427 8435 8434 8427 8428 8436 8435 8428 8429 8437 8436 8429 8430 8438 8437 8430 8431 8439 8438 8432 8433 8441 8440 8433 8434 8442 8441 8434 8435 8443 8442 8435 8436 8444 8443 8436 8437 8445 8444 8437 8438 8446 8445 8438 8439 8447 8446 8448 8449 8457 8456 8449 8450 8458 8457 8450 8451 8459 8458 8451 8452 8460 8459 8452 8453 8461 8460 8453 8454 8462 8461 8454 8455 8463 8462 8456 8457 8465 8464 8457 8458 8466 8465 8458 8459 8467 8466 8459 8460 8468 8467 8460 8461 8469 8468 8461 8462 8470 8469 8462 8463 8471 8470 8464 8465 8473 8472 8465 8466 8474 8473 8466 8467 8475 8474 8467 8468 8476 8475 8468 8469 8477 8476 8469 8470 8478 8477 8470 8471 8479 8478 8472 8473 8481 8480 8473 8474 8482 8481 8474 8475 8483 8482 8475 8476 8484 8483 8476 8477 8485 8484 8477 8478 8486 8485 8478 8479 8487 8486 8480 8481 8489 8488 8481 8482 8490 8489 8482 8483 8491 8490 8483 8484 8492 8491 8484 8485 8493 8492 8485 8486 8494 8493 8486 8487 8495 8494 8488 8489 8497 8496 8489 8490 8498 8497 8490 8491 8499 8498 8491 8492 8500 8499 8492 8493 8501 8500 8493 8494 8502 8501 8494 8495 8503 8502 8496 8497 8505 8504 8497 8498 8506 8505 8498 8499 8507 8506 8499 8500 8508 8507 8500 8501 8509 8508 8501 8502 8510 8509 8502 8503 8511 8510 8512 8513 8521 8520 8513 8514 8522 8521 8514 8515 8523 8522 8515 8516 8524 8523 8516 8517 8525 8524 8517 8518 8526 8525 8518 8519 8527 8526 8520 8521 8529 8528 8521 8522 8530 8529 8522 8523 8531 8530 8523 8524 8532 8531 8524 8525 8533 8532 8525 8526 8534 8533 8526 8527 8535 8534 8528 8529 8537 8536 8529 8530 8538 8537 8530 8531 8539 8538 8531 8532 8540 8539 8532 8533 8541 8540 8533 8534 8542 8541 8534 8535 8543 8542 8536 8537 8545 8544 8537 8538 8546 8545 8538 8539 8547 8546 8539 8540 8548 8547 8540 8541 8549 8548 8541 8542 8550 8549 8542 8543 8551 8550 8544 8545 8553 8552 8545 8546 8554 8553 8546 8547 8555 8554 8547 8548 8556 8555 8548 8549 8557 8556 8549 8550 8558 8557 8550 8551 8559 8558 8552 8553 8561 8560 8553 8554 8562 8561 8554 8555 8563 8562 8555 8556 8564 8563 8556 8557 8565 8564 8557 8558 8566 8565 8558 8559 8567 8566 8560 8561 8569 8568 8561 8562 8570 8569 8562 8563 8571 8570 8563 8564 8572 8571 8564 8565 8573 8572 8565 8566 8574 8573 8566 8567 8575 8574 8576 8577 8585 8584 8577 8578 8586 8585 8578 8579 8587 8586 8579 8580 8588 8587 8580 8581 8589 8588 8581 8582 8590 8589 8582 8583 8591 8590 8584 8585 8593 8592 8585 8586 8594 8593 8586 8587 8595 8594 8587 8588 8596 8595 8588 8589 8597 8596 8589 8590 8598 8597 8590 8591 8599 8598 8592 8593 8601 8600 8593 8594 8602 8601 8594 8595 8603 8602 8595 8596 8604 8603 8596 8597 8605 8604 8597 8598 8606 8605 8598 8599 8607 8606 8600 8601 8609 8608 8601 8602 8610 8609 8602 8603 8611 8610 8603 8604 8612 8611 8604 8605 8613 8612 8605 8606 8614 8613 8606 8607 8615 8614 8608 8609 8617 8616 8609 8610 8618 8617 8610 8611 8619 8618 8611 8612 8620 8619 8612 8613 8621 8620 8613 8614 8622 8621 8614 8615 8623 8622 8616 8617 8625 8624 8617 8618 8626 8625 8618 8619 8627 8626 8619 8620 8628 8627 8620 8621 8629 8628 8621 8622 8630 8629 8622 8623 8631 8630 8624 8625 8633 8632 8625 8626 8634 8633 8626 8627 8635 8634 8627 8628 8636 8635 8628 8629 8637 8636 8629 8630 8638 8637 8630 8631 8639 8638 8640 8641 8649 8648 8641 8642 8650 8649 8642 8643 8651 8650 8643 8644 8652 8651 8644 8645 8653 8652 8645 8646 8654 8653 8646 8647 8655 8654 8648 8649 8657 8656 8649 8650 8658 8657 8650 8651 8659 8658 8651 8652 8660 8659 8652 8653 8661 8660 8653 8654 8662 8661 8654 8655 8663 8662 8656 8657 8665 8664 8657 8658 8666 8665 8658 8659 8667 8666 8659 8660 8668 8667 8660 8661 8669 8668 8661 8662 8670 8669 8662 8663 8671 8670 8664 8665 8673 8672 8665 8666 8674 8673 8666 8667 8675 8674 8667 8668 8676 8675 8668 8669 8677 8676 8669 8670 8678 8677 8670 8671 8679 8678 8672 8673 8681 8680 8673 8674 8682 8681 8674 8675 8683 8682 8675 8676 8684 8683 8676 8677 8685 8684 8677 8678 8686 8685 8678 8679 8687 8686 8680 8681 8689 8688 8681 8682 8690 8689 8682 8683 8691 8690 8683 8684 8692 8691 8684 8685 8693 8692 8685 8686 8694 8693 8686 8687 8695 8694 8688 8689 8697 8696 8689 8690 8698 8697 8690 8691 8699 8698 8691 8692 8700 8699 8692 8693 8701 8700 8693 8694 8702 8701 8694 8695 8703 8702 8704 8705 8713 8712 8705 8706 8714 8713 8706 8707 8715 8714 8707 8708 8716 8715 8708 8709 8717 8716 8709 8710 8718 8717 8710 8711 8719 8718 8712 8713 8721 8720 8713 8714 8722 8721 8714 8715 8723 8722 8715 8716 8724 8723 8716 8717 8725 8724 8717 8718 8726 8725 8718 8719 8727 8726 8720 8721 8729 8728 8721 8722 8730 8729 8722 8723 8731 8730 8723 8724 8732 8731 8724 8725 8733 8732 8725 8726 8734 8733 8726 8727 8735 8734 8728 8729 8737 8736 8729 8730 8738 8737 8730 8731 8739 8738 8731 8732 8740 8739 8732 8733 8741 8740 8733 8734 8742 8741 8734 8735 8743 8742 8736 8737 8745 8744 8737 8738 8746 8745 8738 8739 8747 8746 8739 8740 8748 8747 8740 8741 8749 8748 8741 8742 8750 8749 8742 8743 8751 8750 8744 8745 8753 8752 8745 8746 8754 8753 8746 8747 8755 8754 8747 8748 8756 8755 8748 8749 8757 8756 8749 8750 8758 8757 8750 8751 8759 8758 8752 8753 8761 8760 8753 8754 8762 8761 8754 8755 8763 8762 8755 8756 8764 8763 8756 8757 8765 8764 8757 8758 8766 8765 8758 8759 8767 8766 8768 8769 8777 8776 8769 8770 8778 8777 8770 8771 8779 8778 8771 8772 8780 8779 8772 8773 8781 8780 8773 8774 8782 8781 8774 8775 8783 8782 8776 8777 8785 8784 8777 8778 8786 8785 8778 8779 8787 8786 8779 8780 8788 8787 8780 8781 8789 8788 8781 8782 8790 8789 8782 8783 8791 8790 8784 8785 8793 8792 8785 8786 8794 8793 8786 8787 8795 8794 8787 8788 8796 8795 8788 8789 8797 8796 8789 8790 8798 8797 8790 8791 8799 8798 8792 8793 8801 8800 8793 8794 8802 8801 8794 8795 8803 8802 8795 8796 8804 8803 8796 8797 8805 8804 8797 8798 8806 8805 8798 8799 8807 8806 8800 8801 8809 8808 8801 8802 8810 8809 8802 8803 8811 8810 8803 8804 8812 8811 8804 8805 8813 8812 8805 8806 8814 8813 8806 8807 8815 8814 8808 8809 8817 8816 8809 8810 8818 8817 8810 8811 8819 8818 8811 8812 8820 8819 8812 8813 8821 8820 8813 8814 8822 8821 8814 8815 8823 8822 8816 8817 8825 8824 8817 8818 8826 8825 8818 8819 8827 8826 8819 8820 8828 8827 8820 8821 8829 8828 8821 8822 8830 8829 8822 8823 8831 8830 8832 8833 8841 8840 8833 8834 8842 8841 8834 8835 8843 8842 8835 8836 8844 8843 8836 8837 8845 8844 8837 8838 8846 8845 8838 8839 8847 8846 8840 8841 8849 8848 8841 8842 8850 8849 8842 8843 8851 8850 8843 8844 8852 8851 8844 8845 8853 8852 8845 8846 8854 8853 8846 8847 8855 8854 8848 8849 8857 8856 8849 8850 8858 8857 8850 8851 8859 8858 8851 8852 8860 8859 8852 8853 8861 8860 8853 8854 8862 8861 8854 8855 8863 8862 8856 8857 8865 8864 8857 8858 8866 8865 8858 8859 8867 8866 8859 8860 8868 8867 8860 8861 8869 8868 8861 8862 8870 8869 8862 8863 8871 8870 8864 8865 8873 8872 8865 8866 8874 8873 8866 8867 8875 8874 8867 8868 8876 8875 8868 8869 8877 8876 8869 8870 8878 8877 8870 8871 8879 8878 8872 8873 8881 8880 8873 8874 8882 8881 8874 8875 8883 8882 8875 8876 8884 8883 8876 8877 8885 8884 8877 8878 8886 8885 8878 8879 8887 8886 8880 8881 8889 8888 8881 8882 8890 8889 8882 8883 8891 8890 8883 8884 8892 8891 8884 8885 8893 8892 8885 8886 8894 8893 8886 8887 8895 8894 8896 8897 8905 8904 8897 8898 8906 8905 8898 8899 8907 8906 8899 8900 8908 8907 8900 8901 8909 8908 8901 8902 8910 8909 8902 8903 8911 8910 8904 8905 8913 8912 8905 8906 8914 8913 8906 8907 8915 8914 8907 8908 8916 8915 8908 8909 8917 8916 8909 8910 8918 8917 8910 8911 8919 8918 8912 8913 8921 8920 8913 8914 8922 8921 8914 8915 8923 8922 8915 8916 8924 8923 8916 8917 8925 8924 8917 8918 8926 8925 8918 8919 8927 8926 8920 8921 8929 8928 8921 8922 8930 8929 8922 8923 8931 8930 8923 8924 8932 8931 8924 8925 8933 8932 8925 8926 8934 8933 8926 8927 8935 8934 8928 8929 8937 8936 8929 8930 8938 8937 8930 8931 8939 8938 8931 8932 8940 8939 8932 8933 8941 8940 8933 8934 8942 8941 8934 8935 8943 8942 8936 8937 8945 8944 8937 8938 8946 8945 8938 8939 8947 8946 8939 8940 8948 8947 8940 8941 8949 8948 8941 8942 8950 8949 8942 8943 8951 8950 8944 8945 8953 8952 8945 8946 8954 8953 8946 8947 8955 8954 8947 8948 8956 8955 8948 8949 8957 8956 8949 8950 8958 8957 8950 8951 8959 8958 8960 8961 8969 8968 8961 8962 8970 8969 8962 8963 8971 8970 8963 8964 8972 8971 8964 8965 8973 8972 8965 8966 8974 8973 8966 8967 8975 8974 8968 8969 8977 8976 8969 8970 8978 8977 8970 8971 8979 8978 8971 8972 8980 8979 8972 8973 8981 8980 8973 8974 8982 8981 8974 8975 8983 8982 8976 8977 8985 8984 8977 8978 8986 8985 8978 8979 8987 8986 8979 8980 8988 8987 8980 8981 8989 8988 8981 8982 8990 8989 8982 8983 8991 8990 8984 8985 8993 8992 8985 8986 8994 8993 8986 8987 8995 8994 8987 8988 8996 8995 8988 8989 8997 8996 8989 8990 8998 8997 8990 8991 8999 8998 8992 8993 9001 9000 8993 8994 9002 9001 8994 8995 9003 9002 8995 8996 9004 9003 8996 8997 9005 9004 8997 8998 9006 9005 8998 8999 9007 9006 9000 9001 9009 9008 9001 9002 9010 9009 9002 9003 9011 9010 9003 9004 9012 9011 9004 9005 9013 9012 9005 9006 9014 9013 9006 9007 9015 9014 9008 9009 9017 9016 9009 9010 9018 9017 9010 9011 9019 9018 9011 9012 9020 9019 9012 9013 9021 9020 9013 9014 9022 9021 9014 9015 9023 9022 9024 9025 9033 9032 9025 9026 9034 9033 9026 9027 9035 9034 9027 9028 9036 9035 9028 9029 9037 9036 9029 9030 9038 9037 9030 9031 9039 9038 9032 9033 9041 9040 9033 9034 9042 9041 9034 9035 9043 9042 9035 9036 9044 9043 9036 9037 9045 9044 9037 9038 9046 9045 9038 9039 9047 9046 9040 9041 9049 9048 9041 9042 9050 9049 9042 9043 9051 9050 9043 9044 9052 9051 9044 9045 9053 9052 9045 9046 9054 9053 9046 9047 9055 9054 9048 9049 9057 9056 9049 9050 9058 9057 9050 9051 9059 9058 9051 9052 9060 9059 9052 9053 9061 9060 9053 9054 9062 9061 9054 9055 9063 9062 9056 9057 9065 9064 9057 9058 9066 9065 9058 9059 9067 9066 9059 9060 9068 9067 9060 9061 9069 9068 9061 9062 9070 9069 9062 9063 9071 9070 9064 9065 9073 9072 9065 9066 9074 9073 9066 9067 9075 9074 9067 9068 9076 9075 9068 9069 9077 9076 9069 9070 9078 9077 9070 9071 9079 9078 9072 9073 9081 9080 9073 9074 9082 9081 9074 9075 9083 9082 9075 9076 9084 9083 9076 9077 9085 9084 9077 9078 9086 9085 9078 9079 9087 9086 9088 9089 9097 9096 9089 9090 9098 9097 9090 9091 9099 9098 9091 9092 9100 9099 9092 9093 9101 9100 9093 9094 9102 9101 9094 9095 9103 9102 9096 9097 9105 9104 9097 9098 9106 9105 9098 9099 9107 9106 9099 9100 9108 9107 9100 9101 9109 9108 9101 9102 9110 9109 9102 9103 9111 9110 9104 9105 9113 9112 9105 9106 9114 9113 9106 9107 9115 9114 9107 9108 9116 9115 9108 9109 9117 9116 9109 9110 9118 9117 9110 9111 9119 9118 9112 9113 9121 9120 9113 9114 9122 9121 9114 9115 9123 9122 9115 9116 9124 9123 9116 9117 9125 9124 9117 9118 9126 9125 9118 9119 9127 9126 9120 9121 9129 9128 9121 9122 9130 9129 9122 9123 9131 9130 9123 9124 9132 9131 9124 9125 9133 9132 9125 9126 9134 9133 9126 9127 9135 9134 9128 9129 9137 9136 9129 9130 9138 9137 9130 9131 9139 9138 9131 9132 9140 9139 9132 9133 9141 9140 9133 9134 9142 9141 9134 9135 9143 9142 9136 9137 9145 9144 9137 9138 9146 9145 9138 9139 9147 9146 9139 9140 9148 9147 9140 9141 9149 9148 9141 9142 9150 9149 9142 9143 9151 9150 9152 9153 9161 9160 9153 9154 9162 9161 9154 9155 9163 9162 9155 9156 9164 9163 9156 9157 9165 9164 9157 9158 9166 9165 9158 9159 9167 9166 9160 9161 9169 9168 9161 9162 9170 9169 9162 9163 9171 9170 9163 9164 9172 9171 9164 9165 9173 9172 9165 9166 9174 9173 9166 9167 9175 9174 9168 9169 9177 9176 9169 9170 9178 9177 9170 9171 9179 9178 9171 9172 9180 9179 9172 9173 9181 9180 9173 9174 9182 9181 9174 9175 9183 9182 9176 9177 9185 9184 9177 9178 9186 9185 9178 9179 9187 9186 9179 9180 9188 9187 9180 9181 9189 9188 9181 9182 9190 9189 9182 9183 9191 9190 9184 9185 9193 9192 9185 9186 9194 9193 9186 9187 9195 9194 9187 9188 9196 9195 9188 9189 9197 9196 9189 9190 9198 9197 9190 9191 9199 9198 9192 9193 9201 9200 9193 9194 9202 9201 9194 9195 9203 9202 9195 9196 9204 9203 9196 9197 9205 9204 9197 9198 9206 9205 9198 9199 9207 9206 9200 9201 9209 9208 9201 9202 9210 9209 9202 9203 9211 9210 9203 9204 9212 9211 9204 9205 9213 9212 9205 9206 9214 9213 9206 9207 9215 9214 9216 9217 9225 9224 9217 9218 9226 9225 9218 9219 9227 9226 9219 9220 9228 9227 9220 9221 9229 9228 9221 9222 9230 9229 9222 9223 9231 9230 9224 9225 9233 9232 9225 9226 9234 9233 9226 9227 9235 9234 9227 9228 9236 9235 9228 9229 9237 9236 9229 9230 9238 9237 9230 9231 9239 9238 9232 9233 9241 9240 9233 9234 9242 9241 9234 9235 9243 9242 9235 9236 9244 9243 9236 9237 9245 9244 9237 9238 9246 9245 9238 9239 9247 9246 9240 9241 9249 9248 9241 9242 9250 9249 9242 9243 9251 9250 9243 9244 9252 9251 9244 9245 9253 9252 9245 9246 9254 9253 9246 9247 9255 9254 9248 9249 9257 9256 9249 9250 9258 9257 9250 9251 9259 9258 9251 9252 9260 9259 9252 9253 9261 9260 9253 9254 9262 9261 9254 9255 9263 9262 9256 9257 9265 9264 9257 9258 9266 9265 9258 9259 9267 9266 9259 9260 9268 9267 9260 9261 9269 9268 9261 9262 9270 9269 9262 9263 9271 9270 9264 9265 9273 9272 9265 9266 9274 9273 9266 9267 9275 9274 9267 9268 9276 9275 9268 9269 9277 9276 9269 9270 9278 9277 9270 9271 9279 9278 9280 9281 9289 9288 9281 9282 9290 9289 9282 9283 9291 9290 9283 9284 9292 9291 9284 9285 9293 9292 9285 9286 9294 9293 9286 9287 9295 9294 9288 9289 9297 9296 9289 9290 9298 9297 9290 9291 9299 9298 9291 9292 9300 9299 9292 9293 9301 9300 9293 9294 9302 9301 9294 9295 9303 9302 9296 9297 9305 9304 9297 9298 9306 9305 9298 9299 9307 9306 9299 9300 9308 9307 9300 9301 9309 9308 9301 9302 9310 9309 9302 9303 9311 9310 9304 9305 9313 9312 9305 9306 9314 9313 9306 9307 9315 9314 9307 9308 9316 9315 9308 9309 9317 9316 9309 9310 9318 9317 9310 9311 9319 9318 9312 9313 9321 9320 9313 9314 9322 9321 9314 9315 9323 9322 9315 9316 9324 9323 9316 9317 9325 9324 9317 9318 9326 9325 9318 9319 9327 9326 9320 9321 9329 9328 9321 9322 9330 9329 9322 9323 9331 9330 9323 9324 9332 9331 9324 9325 9333 9332 9325 9326 9334 9333 9326 9327 9335 9334 9328 9329 9337 9336 9329 9330 9338 9337 9330 9331 9339 9338 9331 9332 9340 9339 9332 9333 9341 9340 9333 9334 9342 9341 9334 9335 9343 9342 9344 9345 9353 9352 9345 9346 9354 9353 9346 9347 9355 9354 9347 9348 9356 9355 9348 9349 9357 9356 9349 9350 9358 9357 9350 9351 9359 9358 9352 9353 9361 9360 9353 9354 9362 9361 9354 9355 9363 9362 9355 9356 9364 9363 9356 9357 9365 9364 9357 9358 9366 9365 9358 9359 9367 9366 9360 9361 9369 9368 9361 9362 9370 9369 9362 9363 9371 9370 9363 9364 9372 9371 9364 9365 9373 9372 9365 9366 9374 9373 9366 9367 9375 9374 9368 9369 9377 9376 9369 9370 9378 9377 9370 9371 9379 9378 9371 9372 9380 9379 9372 9373 9381 9380 9373 9374 9382 9381 9374 9375 9383 9382 9376 9377 9385 9384 9377 9378 9386 9385 9378 9379 9387 9386 9379 9380 9388 9387 9380 9381 9389 9388 9381 9382 9390 9389 9382 9383 9391 9390 9384 9385 9393 9392 9385 9386 9394 9393 9386 9387 9395 9394 9387 9388 9396 9395 9388 9389 9397 9396 9389 9390 9398 9397 9390 9391 9399 9398 9392 9393 9401 9400 9393 9394 9402 9401 9394 9395 9403 9402 9395 9396 9404 9403 9396 9397 9405 9404 9397 9398 9406 9405 9398 9399 9407 9406 9408 9409 9417 9416 9409 9410 9418 9417 9410 9411 9419 9418 9411 9412 9420 9419 9412 9413 9421 9420 9413 9414 9422 9421 9414 9415 9423 9422 9416 9417 9425 9424 9417 9418 9426 9425 9418 9419 9427 9426 9419 9420 9428 9427 9420 9421 9429 9428 9421 9422 9430 9429 9422 9423 9431 9430 9424 9425 9433 9432 9425 9426 9434 9433 9426 9427 9435 9434 9427 9428 9436 9435 9428 9429 9437 9436 9429 9430 9438 9437 9430 9431 9439 9438 9432 9433 9441 9440 9433 9434 9442 9441 9434 9435 9443 9442 9435 9436 9444 9443 9436 9437 9445 9444 9437 9438 9446 9445 9438 9439 9447 9446 9440 9441 9449 9448 9441 9442 9450 9449 9442 9443 9451 9450 9443 9444 9452 9451 9444 9445 9453 9452 9445 9446 9454 9453 9446 9447 9455 9454 9448 9449 9457 9456 9449 9450 9458 9457 9450 9451 9459 9458 9451 9452 9460 9459 9452 9453 9461 9460 9453 9454 9462 9461 9454 9455 9463 9462 9456 9457 9465 9464 9457 9458 9466 9465 9458 9459 9467 9466 9459 9460 9468 9467 9460 9461 9469 9468 9461 9462 9470 9469 9462 9463 9471 9470 9472 9473 9481 9480 9473 9474 9482 9481 9474 9475 9483 9482 9475 9476 9484 9483 9476 9477 9485 9484 9477 9478 9486 9485 9478 9479 9487 9486 9480 9481 9489 9488 9481 9482 9490 9489 9482 9483 9491 9490 9483 9484 9492 9491 9484 9485 9493 9492 9485 9486 9494 9493 9486 9487 9495 9494 9488 9489 9497 9496 9489 9490 9498 9497 9490 9491 9499 9498 9491 9492 9500 9499 9492 9493 9501 9500 9493 9494 9502 9501 9494 9495 9503 9502 9496 9497 9505 9504 9497 9498 9506 9505 9498 9499 9507 9506 9499 9500 9508 9507 9500 9501 9509 9508 9501 9502 9510 9509 9502 9503 9511 9510 9504 9505 9513 9512 9505 9506 9514 9513 9506 9507 9515 9514 9507 9508 9516 9515 9508 9509 9517 9516 9509 9510 9518 9517 9510 9511 9519 9518 9512 9513 9521 9520 9513 9514 9522 9521 9514 9515 9523 9522 9515 9516 9524 9523 9516 9517 9525 9524 9517 9518 9526 9525 9518 9519 9527 9526 9520 9521 9529 9528 9521 9522 9530 9529 9522 9523 9531 9530 9523 9524 9532 9531 9524 9525 9533 9532 9525 9526 9534 9533 9526 9527 9535 9534 9536 9537 9545 9544 9537 9538 9546 9545 9538 9539 9547 9546 9539 9540 9548 9547 9540 9541 9549 9548 9541 9542 9550 9549 9542 9543 9551 9550 9544 9545 9553 9552 9545 9546 9554 9553 9546 9547 9555 9554 9547 9548 9556 9555 9548 9549 9557 9556 9549 9550 9558 9557 9550 9551 9559 9558 9552 9553 9561 9560 9553 9554 9562 9561 9554 9555 9563 9562 9555 9556 9564 9563 9556 9557 9565 9564 9557 9558 9566 9565 9558 9559 9567 9566 9560 9561 9569 9568 9561 9562 9570 9569 9562 9563 9571 9570 9563 9564 9572 9571 9564 9565 9573 9572 9565 9566 9574 9573 9566 9567 9575 9574 9568 9569 9577 9576 9569 9570 9578 9577 9570 9571 9579 9578 9571 9572 9580 9579 9572 9573 9581 9580 9573 9574 9582 9581 9574 9575 9583 9582 9576 9577 9585 9584 9577 9578 9586 9585 9578 9579 9587 9586 9579 9580 9588 9587 9580 9581 9589 9588 9581 9582 9590 9589 9582 9583 9591 9590 9584 9585 9593 9592 9585 9586 9594 9593 9586 9587 9595 9594 9587 9588 9596 9595 9588 9589 9597 9596 9589 9590 9598 9597 9590 9591 9599 9598 9600 9601 9609 9608 9601 9602 9610 9609 9602 9603 9611 9610 9603 9604 9612 9611 9604 9605 9613 9612 9605 9606 9614 9613 9606 9607 9615 9614 9608 9609 9617 9616 9609 9610 9618 9617 9610 9611 9619 9618 9611 9612 9620 9619 9612 9613 9621 9620 9613 9614 9622 9621 9614 9615 9623 9622 9616 9617 9625 9624 9617 9618 9626 9625 9618 9619 9627 9626 9619 9620 9628 9627 9620 9621 9629 9628 9621 9622 9630 9629 9622 9623 9631 9630 9624 9625 9633 9632 9625 9626 9634 9633 9626 9627 9635 9634 9627 9628 9636 9635 9628 9629 9637 9636 9629 9630 9638 9637 9630 9631 9639 9638 9632 9633 9641 9640 9633 9634 9642 9641 9634 9635 9643 9642 9635 9636 9644 9643 9636 9637 9645 9644 9637 9638 9646 9645 9638 9639 9647 9646 9640 9641 9649 9648 9641 9642 9650 9649 9642 9643 9651 9650 9643 9644 9652 9651 9644 9645 9653 9652 9645 9646 9654 9653 9646 9647 9655 9654 9648 9649 9657 9656 9649 9650 9658 9657 9650 9651 9659 9658 9651 9652 9660 9659 9652 9653 9661 9660 9653 9654 9662 9661 9654 9655 9663 9662 9664 9665 9673 9672 9665 9666 9674 9673 9666 9667 9675 9674 9667 9668 9676 9675 9668 9669 9677 9676 9669 9670 9678 9677 9670 9671 9679 9678 9672 9673 9681 9680 9673 9674 9682 9681 9674 9675 9683 9682 9675 9676 9684 9683 9676 9677 9685 9684 9677 9678 9686 9685 9678 9679 9687 9686 9680 9681 9689 9688 9681 9682 9690 9689 9682 9683 9691 9690 9683 9684 9692 9691 9684 9685 9693 9692 9685 9686 9694 9693 9686 9687 9695 9694 9688 9689 9697 9696 9689 9690 9698 9697 9690 9691 9699 9698 9691 9692 9700 9699 9692 9693 9701 9700 9693 9694 9702 9701 9694 9695 9703 9702 9696 9697 9705 9704 9697 9698 9706 9705 9698 9699 9707 9706 9699 9700 9708 9707 9700 9701 9709 9708 9701 9702 9710 9709 9702 9703 9711 9710 9704 9705 9713 9712 9705 9706 9714 9713 9706 9707 9715 9714 9707 9708 9716 9715 9708 9709 9717 9716 9709 9710 9718 9717 9710 9711 9719 9718 9712 9713 9721 9720 9713 9714 9722 9721 9714 9715 9723 9722 9715 9716 9724 9723 9716 9717 9725 9724 9717 9718 9726 9725 9718 9719 9727 9726 9728 9729 9737 9736 9729 9730 9738 9737 9730 9731 9739 9738 9731 9732 9740 9739 9732 9733 9741 9740 9733 9734 9742 9741 9734 9735 9743 9742 9736 9737 9745 9744 9737 9738 9746 9745 9738 9739 9747 9746 9739 9740 9748 9747 9740 9741 9749 9748 9741 9742 9750 9749 9742 9743 9751 9750 9744 9745 9753 9752 9745 9746 9754 9753 9746 9747 9755 9754 9747 9748 9756 9755 9748 9749 9757 9756 9749 9750 9758 9757 9750 9751 9759 9758 9752 9753 9761 9760 9753 9754 9762 9761 9754 9755 9763 9762 9755 9756 9764 9763 9756 9757 9765 9764 9757 9758 9766 9765 9758 9759 9767 9766 9760 9761 9769 9768 9761 9762 9770 9769 9762 9763 9771 9770 9763 9764 9772 9771 9764 9765 9773 9772 9765 9766 9774 9773 9766 9767 9775 9774 9768 9769 9777 9776 9769 9770 9778 9777 9770 9771 9779 9778 9771 9772 9780 9779 9772 9773 9781 9780 9773 9774 9782 9781 9774 9775 9783 9782 9776 9777 9785 9784 9777 9778 9786 9785 9778 9779 9787 9786 9779 9780 9788 9787 9780 9781 9789 9788 9781 9782 9790 9789 9782 9783 9791 9790 9792 9793 9801 9800 9793 9794 9802 9801 9794 9795 9803 9802 9795 9796 9804 9803 9796 9797 9805 9804 9797 9798 9806 9805 9798 9799 9807 9806 9800 9801 9809 9808 9801 9802 9810 9809 9802 9803 9811 9810 9803 9804 9812 9811 9804 9805 9813 9812 9805 9806 9814 9813 9806 9807 9815 9814 9808 9809 9817 9816 9809 9810 9818 9817 9810 9811 9819 9818 9811 9812 9820 9819 9812 9813 9821 9820 9813 9814 9822 9821 9814 9815 9823 9822 9816 9817 9825 9824 9817 9818 9826 9825 9818 9819 9827 9826 9819 9820 9828 9827 9820 9821 9829 9828 9821 9822 9830 9829 9822 9823 9831 9830 9824 9825 9833 9832 9825 9826 9834 9833 9826 9827 9835 9834 9827 9828 9836 9835 9828 9829 9837 9836 9829 9830 9838 9837 9830 9831 9839 9838 9832 9833 9841 9840 9833 9834 9842 9841 9834 9835 9843 9842 9835 9836 9844 9843 9836 9837 9845 9844 9837 9838 9846 9845 9838 9839 9847 9846 9840 9841 9849 9848 9841 9842 9850 9849 9842 9843 9851 9850 9843 9844 9852 9851 9844 9845 9853 9852 9845 9846 9854 9853 9846 9847 9855 9854 9856 9857 9865 9864 9857 9858 9866 9865 9858 9859 9867 9866 9859 9860 9868 9867 9860 9861 9869 9868 9861 9862 9870 9869 9862 9863 9871 9870 9864 9865 9873 9872 9865 9866 9874 9873 9866 9867 9875 9874 9867 9868 9876 9875 9868 9869 9877 9876 9869 9870 9878 9877 9870 9871 9879 9878 9872 9873 9881 9880 9873 9874 9882 9881 9874 9875 9883 9882 9875 9876 9884 9883 9876 9877 9885 9884 9877 9878 9886 9885 9878 9879 9887 9886 9880 9881 9889 9888 9881 9882 9890 9889 9882 9883 9891 9890 9883 9884 9892 9891 9884 9885 9893 9892 9885 9886 9894 9893 9886 9887 9895 9894 9888 9889 9897 9896 9889 9890 9898 9897 9890 9891 9899 9898 9891 9892 9900 9899 9892 9893 9901 9900 9893 9894 9902 9901 9894 9895 9903 9902 9896 9897 9905 9904 9897 9898 9906 9905 9898 9899 9907 9906 9899 9900 9908 9907 9900 9901 9909 9908 9901 9902 9910 9909 9902 9903 9911 9910 9904 9905 9913 9912 9905 9906 9914 9913 9906 9907 9915 9914 9907 9908 9916 9915 9908 9909 9917 9916 9909 9910 9918 9917 9910 9911 9919 9918 9920 9921 9929 9928 9921 9922 9930 9929 9922 9923 9931 9930 9923 9924 9932 9931 9924 9925 9933 9932 9925 9926 9934 9933 9926 9927 9935 9934 9928 9929 9937 9936 9929 9930 9938 9937 9930 9931 9939 9938 9931 9932 9940 9939 9932 9933 9941 9940 9933 9934 9942 9941 9934 9935 9943 9942 9936 9937 9945 9944 9937 9938 9946 9945 9938 9939 9947 9946 9939 9940 9948 9947 9940 9941 9949 9948 9941 9942 9950 9949 9942 9943 9951 9950 9944 9945 9953 9952 9945 9946 9954 9953 9946 9947 9955 9954 9947 9948 9956 9955 9948 9949 9957 9956 9949 9950 9958 9957 9950 9951 9959 9958 9952 9953 9961 9960 9953 9954 9962 9961 9954 9955 9963 9962 9955 9956 9964 9963 9956 9957 9965 9964 9957 9958 9966 9965 9958 9959 9967 9966 9960 9961 9969 9968 9961 9962 9970 9969 9962 9963 9971 9970 9963 9964 9972 9971 9964 9965 9973 9972 9965 9966 9974 9973 9966 9967 9975 9974 9968 9969 9977 9976 9969 9970 9978 9977 9970 9971 9979 9978 9971 9972 9980 9979 9972 9973 9981 9980 9973 9974 9982 9981 9974 9975 9983 9982 9984 9985 9993 9992 9985 9986 9994 9993 9986 9987 9995 9994 9987 9988 9996 9995 9988 9989 9997 9996 9989 9990 9998 9997 9990 9991 9999 9998 9992 9993 10001 10000 9993 9994 10002 10001 9994 9995 10003 10002 9995 9996 10004 10003 9996 9997 10005 10004 9997 9998 10006 10005 9998 9999 10007 10006 10000 10001 10009 10008 10001 10002 10010 10009 10002 10003 10011 10010 10003 10004 10012 10011 10004 10005 10013 10012 10005 10006 10014 10013 10006 10007 10015 10014 10008 10009 10017 10016 10009 10010 10018 10017 10010 10011 10019 10018 10011 10012 10020 10019 10012 10013 10021 10020 10013 10014 10022 10021 10014 10015 10023 10022 10016 10017 10025 10024 10017 10018 10026 10025 10018 10019 10027 10026 10019 10020 10028 10027 10020 10021 10029 10028 10021 10022 10030 10029 10022 10023 10031 10030 10024 10025 10033 10032 10025 10026 10034 10033 10026 10027 10035 10034 10027 10028 10036 10035 10028 10029 10037 10036 10029 10030 10038 10037 10030 10031 10039 10038 10032 10033 10041 10040 10033 10034 10042 10041 10034 10035 10043 10042 10035 10036 10044 10043 10036 10037 10045 10044 10037 10038 10046 10045 10038 10039 10047 10046 10048 10049 10057 10056 10049 10050 10058 10057 10050 10051 10059 10058 10051 10052 10060 10059 10052 10053 10061 10060 10053 10054 10062 10061 10054 10055 10063 10062 10056 10057 10065 10064 10057 10058 10066 10065 10058 10059 10067 10066 10059 10060 10068 10067 10060 10061 10069 10068 10061 10062 10070 10069 10062 10063 10071 10070 10064 10065 10073 10072 10065 10066 10074 10073 10066 10067 10075 10074 10067 10068 10076 10075 10068 10069 10077 10076 10069 10070 10078 10077 10070 10071 10079 10078 10072 10073 10081 10080 10073 10074 10082 10081 10074 10075 10083 10082 10075 10076 10084 10083 10076 10077 10085 10084 10077 10078 10086 10085 10078 10079 10087 10086 10080 10081 10089 10088 10081 10082 10090 10089 10082 10083 10091 10090 10083 10084 10092 10091 10084 10085 10093 10092 10085 10086 10094 10093 10086 10087 10095 10094 10088 10089 10097 10096 10089 10090 10098 10097 10090 10091 10099 10098 10091 10092 10100 10099 10092 10093 10101 10100 10093 10094 10102 10101 10094 10095 10103 10102 10096 10097 10105 10104 10097 10098 10106 10105 10098 10099 10107 10106 10099 10100 10108 10107 10100 10101 10109 10108 10101 10102 10110 10109 10102 10103 10111 10110 10112 10113 10121 10120 10113 10114 10122 10121 10114 10115 10123 10122 10115 10116 10124 10123 10116 10117 10125 10124 10117 10118 10126 10125 10118 10119 10127 10126 10120 10121 10129 10128 10121 10122 10130 10129 10122 10123 10131 10130 10123 10124 10132 10131 10124 10125 10133 10132 10125 10126 10134 10133 10126 10127 10135 10134 10128 10129 10137 10136 10129 10130 10138 10137 10130 10131 10139 10138 10131 10132 10140 10139 10132 10133 10141 10140 10133 10134 10142 10141 10134 10135 10143 10142 10136 10137 10145 10144 10137 10138 10146 10145 10138 10139 10147 10146 10139 10140 10148 10147 10140 10141 10149 10148 10141 10142 10150 10149 10142 10143 10151 10150 10144 10145 10153 10152 10145 10146 10154 10153 10146 10147 10155 10154 10147 10148 10156 10155 10148 10149 10157 10156 10149 10150 10158 10157 10150 10151 10159 10158 10152 10153 10161 10160 10153 10154 10162 10161 10154 10155 10163 10162 10155 10156 10164 10163 10156 10157 10165 10164 10157 10158 10166 10165 10158 10159 10167 10166 10160 10161 10169 10168 10161 10162 10170 10169 10162 10163 10171 10170 10163 10164 10172 10171 10164 10165 10173 10172 10165 10166 10174 10173 10166 10167 10175 10174 10176 10177 10185 10184 10177 10178 10186 10185 10178 10179 10187 10186 10179 10180 10188 10187 10180 10181 10189 10188 10181 10182 10190 10189 10182 10183 10191 10190 10184 10185 10193 10192 10185 10186 10194 10193 10186 10187 10195 10194 10187 10188 10196 10195 10188 10189 10197 10196 10189 10190 10198 10197 10190 10191 10199 10198 10192 10193 10201 10200 10193 10194 10202 10201 10194 10195 10203 10202 10195 10196 10204 10203 10196 10197 10205 10204 10197 10198 10206 10205 10198 10199 10207 10206 10200 10201 10209 10208 10201 10202 10210 10209 10202 10203 10211 10210 10203 10204 10212 10211 10204 10205 10213 10212 10205 10206 10214 10213 10206 10207 10215 10214 10208 10209 10217 10216 10209 10210 10218 10217 10210 10211 10219 10218 10211 10212 10220 10219 10212 10213 10221 10220 10213 10214 10222 10221 10214 10215 10223 10222 10216 10217 10225 10224 10217 10218 10226 10225 10218 10219 10227 10226 10219 10220 10228 10227 10220 10221 10229 10228 10221 10222 10230 10229 10222 10223 10231 10230 10224 10225 10233 10232 10225 10226 10234 10233 10226 10227 10235 10234 10227 10228 10236 10235 10228 10229 10237 10236 10229 10230 10238 10237 10230 10231 10239 10238 10240 10241 10249 10248 10241 10242 10250 10249 10242 10243 10251 10250 10243 10244 10252 10251 10244 10245 10253 10252 10245 10246 10254 10253 10246 10247 10255 10254 10248 10249 10257 10256 10249 10250 10258 10257 10250 10251 10259 10258 10251 10252 10260 10259 10252 10253 10261 10260 10253 10254 10262 10261 10254 10255 10263 10262 10256 10257 10265 10264 10257 10258 10266 10265 10258 10259 10267 10266 10259 10260 10268 10267 10260 10261 10269 10268 10261 10262 10270 10269 10262 10263 10271 10270 10264 10265 10273 10272 10265 10266 10274 10273 10266 10267 10275 10274 10267 10268 10276 10275 10268 10269 10277 10276 10269 10270 10278 10277 10270 10271 10279 10278 10272 10273 10281 10280 10273 10274 10282 10281 10274 10275 10283 10282 10275 10276 10284 10283 10276 10277 10285 10284 10277 10278 10286 10285 10278 10279 10287 10286 10280 10281 10289 10288 10281 10282 10290 10289 10282 10283 10291 10290 10283 10284 10292 10291 10284 10285 10293 10292 10285 10286 10294 10293 10286 10287 10295 10294 10288 10289 10297 10296 10289 10290 10298 10297 10290 10291 10299 10298 10291 10292 10300 10299 10292 10293 10301 10300 10293 10294 10302 10301 10294 10295 10303 10302 10304 10305 10313 10312 10305 10306 10314 10313 10306 10307 10315 10314 10307 10308 10316 10315 10308 10309 10317 10316 10309 10310 10318 10317 10310 10311 10319 10318 10312 10313 10321 10320 10313 10314 10322 10321 10314 10315 10323 10322 10315 10316 10324 10323 10316 10317 10325 10324 10317 10318 10326 10325 10318 10319 10327 10326 10320 10321 10329 10328 10321 10322 10330 10329 10322 10323 10331 10330 10323 10324 10332 10331 10324 10325 10333 10332 10325 10326 10334 10333 10326 10327 10335 10334 10328 10329 10337 10336 10329 10330 10338 10337 10330 10331 10339 10338 10331 10332 10340 10339 10332 10333 10341 10340 10333 10334 10342 10341 10334 10335 10343 10342 10336 10337 10345 10344 10337 10338 10346 10345 10338 10339 10347 10346 10339 10340 10348 10347 10340 10341 10349 10348 10341 10342 10350 10349 10342 10343 10351 10350 10344 10345 10353 10352 10345 10346 10354 10353 10346 10347 10355 10354 10347 10348 10356 10355 10348 10349 10357 10356 10349 10350 10358 10357 10350 10351 10359 10358 10352 10353 10361 10360 10353 10354 10362 10361 10354 10355 10363 10362 10355 10356 10364 10363 10356 10357 10365 10364 10357 10358 10366 10365 10358 10359 10367 10366 10368 10369 10377 10376 10369 10370 10378 10377 10370 10371 10379 10378 10371 10372 10380 10379 10372 10373 10381 10380 10373 10374 10382 10381 10374 10375 10383 10382 10376 10377 10385 10384 10377 10378 10386 10385 10378 10379 10387 10386 10379 10380 10388 10387 10380 10381 10389 10388 10381 10382 10390 10389 10382 10383 10391 10390 10384 10385 10393 10392 10385 10386 10394 10393 10386 10387 10395 10394 10387 10388 10396 10395 10388 10389 10397 10396 10389 10390 10398 10397 10390 10391 10399 10398 10392 10393 10401 10400 10393 10394 10402 10401 10394 10395 10403 10402 10395 10396 10404 10403 10396 10397 10405 10404 10397 10398 10406 10405 10398 10399 10407 10406 10400 10401 10409 10408 10401 10402 10410 10409 10402 10403 10411 10410 10403 10404 10412 10411 10404 10405 10413 10412 10405 10406 10414 10413 10406 10407 10415 10414 10408 10409 10417 10416 10409 10410 10418 10417 10410 10411 10419 10418 10411 10412 10420 10419 10412 10413 10421 10420 10413 10414 10422 10421 10414 10415 10423 10422 10416 10417 10425 10424 10417 10418 10426 10425 10418 10419 10427 10426 10419 10420 10428 10427 10420 10421 10429 10428 10421 10422 10430 10429 10422 10423 10431 10430 10432 10433 10441 10440 10433 10434 10442 10441 10434 10435 10443 10442 10435 10436 10444 10443 10436 10437 10445 10444 10437 10438 10446 10445 10438 10439 10447 10446 10440 10441 10449 10448 10441 10442 10450 10449 10442 10443 10451 10450 10443 10444 10452 10451 10444 10445 10453 10452 10445 10446 10454 10453 10446 10447 10455 10454 10448 10449 10457 10456 10449 10450 10458 10457 10450 10451 10459 10458 10451 10452 10460 10459 10452 10453 10461 10460 10453 10454 10462 10461 10454 10455 10463 10462 10456 10457 10465 10464 10457 10458 10466 10465 10458 10459 10467 10466 10459 10460 10468 10467 10460 10461 10469 10468 10461 10462 10470 10469 10462 10463 10471 10470 10464 10465 10473 10472 10465 10466 10474 10473 10466 10467 10475 10474 10467 10468 10476 10475 10468 10469 10477 10476 10469 10470 10478 10477 10470 10471 10479 10478 10472 10473 10481 10480 10473 10474 10482 10481 10474 10475 10483 10482 10475 10476 10484 10483 10476 10477 10485 10484 10477 10478 10486 10485 10478 10479 10487 10486 10480 10481 10489 10488 10481 10482 10490 10489 10482 10483 10491 10490 10483 10484 10492 10491 10484 10485 10493 10492 10485 10486 10494 10493 10486 10487 10495 10494 10496 10497 10505 10504 10497 10498 10506 10505 10498 10499 10507 10506 10499 10500 10508 10507 10500 10501 10509 10508 10501 10502 10510 10509 10502 10503 10511 10510 10504 10505 10513 10512 10505 10506 10514 10513 10506 10507 10515 10514 10507 10508 10516 10515 10508 10509 10517 10516 10509 10510 10518 10517 10510 10511 10519 10518 10512 10513 10521 10520 10513 10514 10522 10521 10514 10515 10523 10522 10515 10516 10524 10523 10516 10517 10525 10524 10517 10518 10526 10525 10518 10519 10527 10526 10520 10521 10529 10528 10521 10522 10530 10529 10522 10523 10531 10530 10523 10524 10532 10531 10524 10525 10533 10532 10525 10526 10534 10533 10526 10527 10535 10534 10528 10529 10537 10536 10529 10530 10538 10537 10530 10531 10539 10538 10531 10532 10540 10539 10532 10533 10541 10540 10533 10534 10542 10541 10534 10535 10543 10542 10536 10537 10545 10544 10537 10538 10546 10545 10538 10539 10547 10546 10539 10540 10548 10547 10540 10541 10549 10548 10541 10542 10550 10549 10542 10543 10551 10550 10544 10545 10553 10552 10545 10546 10554 10553 10546 10547 10555 10554 10547 10548 10556 10555 10548 10549 10557 10556 10549 10550 10558 10557 10550 10551 10559 10558 10560 10561 10569 10568 10561 10562 10570 10569 10562 10563 10571 10570 10563 10564 10572 10571 10564 10565 10573 10572 10565 10566 10574 10573 10566 10567 10575 10574 10568 10569 10577 10576 10569 10570 10578 10577 10570 10571 10579 10578 10571 10572 10580 10579 10572 10573 10581 10580 10573 10574 10582 10581 10574 10575 10583 10582 10576 10577 10585 10584 10577 10578 10586 10585 10578 10579 10587 10586 10579 10580 10588 10587 10580 10581 10589 10588 10581 10582 10590 10589 10582 10583 10591 10590 10584 10585 10593 10592 10585 10586 10594 10593 10586 10587 10595 10594 10587 10588 10596 10595 10588 10589 10597 10596 10589 10590 10598 10597 10590 10591 10599 10598 10592 10593 10601 10600 10593 10594 10602 10601 10594 10595 10603 10602 10595 10596 10604 10603 10596 10597 10605 10604 10597 10598 10606 10605 10598 10599 10607 10606 10600 10601 10609 10608 10601 10602 10610 10609 10602 10603 10611 10610 10603 10604 10612 10611 10604 10605 10613 10612 10605 10606 10614 10613 10606 10607 10615 10614 10608 10609 10617 10616 10609 10610 10618 10617 10610 10611 10619 10618 10611 10612 10620 10619 10612 10613 10621 10620 10613 10614 10622 10621 10614 10615 10623 10622 10624 10625 10633 10632 10625 10626 10634 10633 10626 10627 10635 10634 10627 10628 10636 10635 10628 10629 10637 10636 10629 10630 10638 10637 10630 10631 10639 10638 10632 10633 10641 10640 10633 10634 10642 10641 10634 10635 10643 10642 10635 10636 10644 10643 10636 10637 10645 10644 10637 10638 10646 10645 10638 10639 10647 10646 10640 10641 10649 10648 10641 10642 10650 10649 10642 10643 10651 10650 10643 10644 10652 10651 10644 10645 10653 10652 10645 10646 10654 10653 10646 10647 10655 10654 10648 10649 10657 10656 10649 10650 10658 10657 10650 10651 10659 10658 10651 10652 10660 10659 10652 10653 10661 10660 10653 10654 10662 10661 10654 10655 10663 10662 10656 10657 10665 10664 10657 10658 10666 10665 10658 10659 10667 10666 10659 10660 10668 10667 10660 10661 10669 10668 10661 10662 10670 10669 10662 10663 10671 10670 10664 10665 10673 10672 10665 10666 10674 10673 10666 10667 10675 10674 10667 10668 10676 10675 10668 10669 10677 10676 10669 10670 10678 10677 10670 10671 10679 10678 10672 10673 10681 10680 10673 10674 10682 10681 10674 10675 10683 10682 10675 10676 10684 10683 10676 10677 10685 10684 10677 10678 10686 10685 10678 10679 10687 10686 10688 10689 10697 10696 10689 10690 10698 10697 10690 10691 10699 10698 10691 10692 10700 10699 10692 10693 10701 10700 10693 10694 10702 10701 10694 10695 10703 10702 10696 10697 10705 10704 10697 10698 10706 10705 10698 10699 10707 10706 10699 10700 10708 10707 10700 10701 10709 10708 10701 10702 10710 10709 10702 10703 10711 10710 10704 10705 10713 10712 10705 10706 10714 10713 10706 10707 10715 10714 10707 10708 10716 10715 10708 10709 10717 10716 10709 10710 10718 10717 10710 10711 10719 10718 10712 10713 10721 10720 10713 10714 10722 10721 10714 10715 10723 10722 10715 10716 10724 10723 10716 10717 10725 10724 10717 10718 10726 10725 10718 10719 10727 10726 10720 10721 10729 10728 10721 10722 10730 10729 10722 10723 10731 10730 10723 10724 10732 10731 10724 10725 10733 10732 10725 10726 10734 10733 10726 10727 10735 10734 10728 10729 10737 10736 10729 10730 10738 10737 10730 10731 10739 10738 10731 10732 10740 10739 10732 10733 10741 10740 10733 10734 10742 10741 10734 10735 10743 10742 10736 10737 10745 10744 10737 10738 10746 10745 10738 10739 10747 10746 10739 10740 10748 10747 10740 10741 10749 10748 10741 10742 10750 10749 10742 10743 10751 10750 10752 10753 10761 10760 10753 10754 10762 10761 10754 10755 10763 10762 10755 10756 10764 10763 10756 10757 10765 10764 10757 10758 10766 10765 10758 10759 10767 10766 10760 10761 10769 10768 10761 10762 10770 10769 10762 10763 10771 10770 10763 10764 10772 10771 10764 10765 10773 10772 10765 10766 10774 10773 10766 10767 10775 10774 10768 10769 10777 10776 10769 10770 10778 10777 10770 10771 10779 10778 10771 10772 10780 10779 10772 10773 10781 10780 10773 10774 10782 10781 10774 10775 10783 10782 10776 10777 10785 10784 10777 10778 10786 10785 10778 10779 10787 10786 10779 10780 10788 10787 10780 10781 10789 10788 10781 10782 10790 10789 10782 10783 10791 10790 10784 10785 10793 10792 10785 10786 10794 10793 10786 10787 10795 10794 10787 10788 10796 10795 10788 10789 10797 10796 10789 10790 10798 10797 10790 10791 10799 10798 10792 10793 10801 10800 10793 10794 10802 10801 10794 10795 10803 10802 10795 10796 10804 10803 10796 10797 10805 10804 10797 10798 10806 10805 10798 10799 10807 10806 10800 10801 10809 10808 10801 10802 10810 10809 10802 10803 10811 10810 10803 10804 10812 10811 10804 10805 10813 10812 10805 10806 10814 10813 10806 10807 10815 10814 10816 10817 10825 10824 10817 10818 10826 10825 10818 10819 10827 10826 10819 10820 10828 10827 10820 10821 10829 10828 10821 10822 10830 10829 10822 10823 10831 10830 10824 10825 10833 10832 10825 10826 10834 10833 10826 10827 10835 10834 10827 10828 10836 10835 10828 10829 10837 10836 10829 10830 10838 10837 10830 10831 10839 10838 10832 10833 10841 10840 10833 10834 10842 10841 10834 10835 10843 10842 10835 10836 10844 10843 10836 10837 10845 10844 10837 10838 10846 10845 10838 10839 10847 10846 10840 10841 10849 10848 10841 10842 10850 10849 10842 10843 10851 10850 10843 10844 10852 10851 10844 10845 10853 10852 10845 10846 10854 10853 10846 10847 10855 10854 10848 10849 10857 10856 10849 10850 10858 10857 10850 10851 10859 10858 10851 10852 10860 10859 10852 10853 10861 10860 10853 10854 10862 10861 10854 10855 10863 10862 10856 10857 10865 10864 10857 10858 10866 10865 10858 10859 10867 10866 10859 10860 10868 10867 10860 10861 10869 10868 10861 10862 10870 10869 10862 10863 10871 10870 10864 10865 10873 10872 10865 10866 10874 10873 10866 10867 10875 10874 10867 10868 10876 10875 10868 10869 10877 10876 10869 10870 10878 10877 10870 10871 10879 10878 10880 10881 10889 10888 10881 10882 10890 10889 10882 10883 10891 10890 10883 10884 10892 10891 10884 10885 10893 10892 10885 10886 10894 10893 10886 10887 10895 10894 10888 10889 10897 10896 10889 10890 10898 10897 10890 10891 10899 10898 10891 10892 10900 10899 10892 10893 10901 10900 10893 10894 10902 10901 10894 10895 10903 10902 10896 10897 10905 10904 10897 10898 10906 10905 10898 10899 10907 10906 10899 10900 10908 10907 10900 10901 10909 10908 10901 10902 10910 10909 10902 10903 10911 10910 10904 10905 10913 10912 10905 10906 10914 10913 10906 10907 10915 10914 10907 10908 10916 10915 10908 10909 10917 10916 10909 10910 10918 10917 10910 10911 10919 10918 10912 10913 10921 10920 10913 10914 10922 10921 10914 10915 10923 10922 10915 10916 10924 10923 10916 10917 10925 10924 10917 10918 10926 10925 10918 10919 10927 10926 10920 10921 10929 10928 10921 10922 10930 10929 10922 10923 10931 10930 10923 10924 10932 10931 10924 10925 10933 10932 10925 10926 10934 10933 10926 10927 10935 10934 10928 10929 10937 10936 10929 10930 10938 10937 10930 10931 10939 10938 10931 10932 10940 10939 10932 10933 10941 10940 10933 10934 10942 10941 10934 10935 10943 10942 10944 10945 10953 10952 10945 10946 10954 10953 10946 10947 10955 10954 10947 10948 10956 10955 10948 10949 10957 10956 10949 10950 10958 10957 10950 10951 10959 10958 10952 10953 10961 10960 10953 10954 10962 10961 10954 10955 10963 10962 10955 10956 10964 10963 10956 10957 10965 10964 10957 10958 10966 10965 10958 10959 10967 10966 10960 10961 10969 10968 10961 10962 10970 10969 10962 10963 10971 10970 10963 10964 10972 10971 10964 10965 10973 10972 10965 10966 10974 10973 10966 10967 10975 10974 10968 10969 10977 10976 10969 10970 10978 10977 10970 10971 10979 10978 10971 10972 10980 10979 10972 10973 10981 10980 10973 10974 10982 10981 10974 10975 10983 10982 10976 10977 10985 10984 10977 10978 10986 10985 10978 10979 10987 10986 10979 10980 10988 10987 10980 10981 10989 10988 10981 10982 10990 10989 10982 10983 10991 10990 10984 10985 10993 10992 10985 10986 10994 10993 10986 10987 10995 10994 10987 10988 10996 10995 10988 10989 10997 10996 10989 10990 10998 10997 10990 10991 10999 10998 10992 10993 11001 11000 10993 10994 11002 11001 10994 10995 11003 11002 10995 10996 11004 11003 10996 10997 11005 11004 10997 10998 11006 11005 10998 10999 11007 11006 11008 11009 11017 11016 11009 11010 11018 11017 11010 11011 11019 11018 11011 11012 11020 11019 11012 11013 11021 11020 11013 11014 11022 11021 11014 11015 11023 11022 11016 11017 11025 11024 11017 11018 11026 11025 11018 11019 11027 11026 11019 11020 11028 11027 11020 11021 11029 11028 11021 11022 11030 11029 11022 11023 11031 11030 11024 11025 11033 11032 11025 11026 11034 11033 11026 11027 11035 11034 11027 11028 11036 11035 11028 11029 11037 11036 11029 11030 11038 11037 11030 11031 11039 11038 11032 11033 11041 11040 11033 11034 11042 11041 11034 11035 11043 11042 11035 11036 11044 11043 11036 11037 11045 11044 11037 11038 11046 11045 11038 11039 11047 11046 11040 11041 11049 11048 11041 11042 11050 11049 11042 11043 11051 11050 11043 11044 11052 11051 11044 11045 11053 11052 11045 11046 11054 11053 11046 11047 11055 11054 11048 11049 11057 11056 11049 11050 11058 11057 11050 11051 11059 11058 11051 11052 11060 11059 11052 11053 11061 11060 11053 11054 11062 11061 11054 11055 11063 11062 11056 11057 11065 11064 11057 11058 11066 11065 11058 11059 11067 11066 11059 11060 11068 11067 11060 11061 11069 11068 11061 11062 11070 11069 11062 11063 11071 11070 11072 11073 11081 11080 11073 11074 11082 11081 11074 11075 11083 11082 11075 11076 11084 11083 11076 11077 11085 11084 11077 11078 11086 11085 11078 11079 11087 11086 11080 11081 11089 11088 11081 11082 11090 11089 11082 11083 11091 11090 11083 11084 11092 11091 11084 11085 11093 11092 11085 11086 11094 11093 11086 11087 11095 11094 11088 11089 11097 11096 11089 11090 11098 11097 11090 11091 11099 11098 11091 11092 11100 11099 11092 11093 11101 11100 11093 11094 11102 11101 11094 11095 11103 11102 11096 11097 11105 11104 11097 11098 11106 11105 11098 11099 11107 11106 11099 11100 11108 11107 11100 11101 11109 11108 11101 11102 11110 11109 11102 11103 11111 11110 11104 11105 11113 11112 11105 11106 11114 11113 11106 11107 11115 11114 11107 11108 11116 11115 11108 11109 11117 11116 11109 11110 11118 11117 11110 11111 11119 11118 11112 11113 11121 11120 11113 11114 11122 11121 11114 11115 11123 11122 11115 11116 11124 11123 11116 11117 11125 11124 11117 11118 11126 11125 11118 11119 11127 11126 11120 11121 11129 11128 11121 11122 11130 11129 11122 11123 11131 11130 11123 11124 11132 11131 11124 11125 11133 11132 11125 11126 11134 11133 11126 11127 11135 11134 11136 11137 11145 11144 11137 11138 11146 11145 11138 11139 11147 11146 11139 11140 11148 11147 11140 11141 11149 11148 11141 11142 11150 11149 11142 11143 11151 11150 11144 11145 11153 11152 11145 11146 11154 11153 11146 11147 11155 11154 11147 11148 11156 11155 11148 11149 11157 11156 11149 11150 11158 11157 11150 11151 11159 11158 11152 11153 11161 11160 11153 11154 11162 11161 11154 11155 11163 11162 11155 11156 11164 11163 11156 11157 11165 11164 11157 11158 11166 11165 11158 11159 11167 11166 11160 11161 11169 11168 11161 11162 11170 11169 11162 11163 11171 11170 11163 11164 11172 11171 11164 11165 11173 11172 11165 11166 11174 11173 11166 11167 11175 11174 11168 11169 11177 11176 11169 11170 11178 11177 11170 11171 11179 11178 11171 11172 11180 11179 11172 11173 11181 11180 11173 11174 11182 11181 11174 11175 11183 11182 11176 11177 11185 11184 11177 11178 11186 11185 11178 11179 11187 11186 11179 11180 11188 11187 11180 11181 11189 11188 11181 11182 11190 11189 11182 11183 11191 11190 11184 11185 11193 11192 11185 11186 11194 11193 11186 11187 11195 11194 11187 11188 11196 11195 11188 11189 11197 11196 11189 11190 11198 11197 11190 11191 11199 11198 11200 11201 11209 11208 11201 11202 11210 11209 11202 11203 11211 11210 11203 11204 11212 11211 11204 11205 11213 11212 11205 11206 11214 11213 11206 11207 11215 11214 11208 11209 11217 11216 11209 11210 11218 11217 11210 11211 11219 11218 11211 11212 11220 11219 11212 11213 11221 11220 11213 11214 11222 11221 11214 11215 11223 11222 11216 11217 11225 11224 11217 11218 11226 11225 11218 11219 11227 11226 11219 11220 11228 11227 11220 11221 11229 11228 11221 11222 11230 11229 11222 11223 11231 11230 11224 11225 11233 11232 11225 11226 11234 11233 11226 11227 11235 11234 11227 11228 11236 11235 11228 11229 11237 11236 11229 11230 11238 11237 11230 11231 11239 11238 11232 11233 11241 11240 11233 11234 11242 11241 11234 11235 11243 11242 11235 11236 11244 11243 11236 11237 11245 11244 11237 11238 11246 11245 11238 11239 11247 11246 11240 11241 11249 11248 11241 11242 11250 11249 11242 11243 11251 11250 11243 11244 11252 11251 11244 11245 11253 11252 11245 11246 11254 11253 11246 11247 11255 11254 11248 11249 11257 11256 11249 11250 11258 11257 11250 11251 11259 11258 11251 11252 11260 11259 11252 11253 11261 11260 11253 11254 11262 11261 11254 11255 11263 11262 
 </DataArray> 
<DataArray type="Int32" Name="offsets"> 
4 8 12 16 20 24 28 32 36 40 44 48 52 56 60 64 68 72 76 80 84 88 92 96 100 104 108 112 116 120 124 128 132 136 140 144 148 152 156 160 164 168 172 176 180 184 188 192 196 200 204 208 212 216 220 224 228 232 236 240 244 248 252 256 260 264 268 272 276 280 284 288 292 296 300 304 308 312 316 320 324 328 332 336 340 344 348 352 356 360 364 368 372 376 380 384 388 392 396 400 404 408 412 416 420 424 428 432 436 440 444 448 452 456 460 464 468 472 476 480 484 488 492 496 500 504 508 512 516 520 524 528 532 536 540 544 548 552 556 560 564 568 572 576 580 584 588 592 596 600 604 608 612 616 620 624 628 632 636 640 644 648 652 656 660 664 668 672 676 680 684 688 692 696 700 704 708 712 716 720 724 728 732 736 740 744 748 752 756 760 764 768 772 776 780 784 788 792 796 800 804 808 812 816 820 824 828 832 836 840 844 848 852 856 860 864 868 872 876 880 884 888 892 896 900 904 908 912 916 920 924 928 932 936 940 944 948 952 956 960 964 968 972 976 980 984 988 992 996 1000 1004 1008 1012 1016 1020 1024 1028 1032 1036 1040 1044 1048 1052 1056 1060 1064 1068 1072 1076 1080 1084 1088 1092 1096 1100 1104 1108 1112 1116 1120 1124 1128 1132 1136 1140 1144 1148 1152 1156 1160 1164 1168 1172 1176 1180 1184 1188 1192 1196 1200 1204 1208 1212 1216 1220 1224 1228 1232 1236 1240 1244 1248 1252 1256 1260 1264 1268 1272 1276 1280 1284 1288 1292 1296 1300 1304 1308 1312 1316 1320 1324 1328 1332 1336 1340 1344 1348 1352 1356 1360 1364 1368 1372 1376 1380 1384 1388 1392 1396 1400 1404 1408 1412 1416 1420 1424 1428 1432 1436 1440 1444 1448 1452 1456 1460 1464 1468 1472 1476 1480 1484 1488 1492 1496 1500 1504 1508 1512 1516 1520 1524 1528 1532 1536 1540 1544 1548 1552 1556 1560 1564 1568 1572 1576 1580 1584 1588 1592 1596 1600 1604 1608 1612 1616 1620 1624 1628 1632 1636 1640 1644 1648 1652 1656 1660 1664 1668 1672 1676 1680 1684 1688 1692 1696 1700 1704 1708 1712 1716 1720 1724 1728 1732 1736 1740 1744 1748 1752 1756 1760 1764 1768 1772 1776 1780 1784 1788 1792 1796 1800 1804 1808 1812 1816 1820 1824 1828 1832 1836 1840 1844 1848 1852 1856 1860 1864 1868 1872 1876 1880 1884 1888 1892 1896 1900 1904 1908 1912 1916 1920 1924 1928 1932 1936 1940 1944 1948 1952 1956 1960 1964 1968 1972 1976 1980 1984 1988 1992 1996 2000 2004 2008 2012 2016 2020 2024 2028 2032 2036 2040 2044 2048 2052 2056 2060 2064 2068 2072 2076 2080 2084 2088 2092 2096 2100 2104 2108 2112 2116 2120 2124 2128 2132 2136 2140 2144 2148 2152 2156 2160 2164 2168 2172 2176 2180 2184 2188 2192 2196 2200 2204 2208 2212 2216 2220 2224 2228 2232 2236 2240 2244 2248 2252 2256 2260 2264 2268 2272 2276 2280 2284 2288 2292 2296 2300 2304 2308 2312 2316 2320 2324 2328 2332 2336 2340 2344 2348 2352 2356 2360 2364 2368 2372 2376 2380 2384 2388 2392 2396 2400 2404 2408 2412 2416 2420 2424 2428 2432 2436 2440 2444 2448 2452 2456 2460 2464 2468 2472 2476 2480 2484 2488 2492 2496 2500 2504 2508 2512 2516 2520 2524 2528 2532 2536 2540 2544 2548 2552 2556 2560 2564 2568 2572 2576 2580 2584 2588 2592 2596 2600 2604 2608 2612 2616 2620 2624 2628 2632 2636 2640 2644 2648 2652 2656 2660 2664 2668 2672 2676 2680 2684 2688 2692 2696 2700 2704 2708 2712 2716 2720 2724 2728 2732 2736 2740 2744 2748 2752 2756 2760 2764 2768 2772 2776 2780 2784 2788 2792 2796 2800 2804 2808 2812 2816 2820 2824 2828 2832 2836 2840 2844 2848 2852 2856 2860 2864 2868 2872 2876 2880 2884 2888 2892 2896 2900 2904 2908 2912 2916 2920 2924 2928 2932 2936 2940 2944 2948 2952 2956 2960 2964 2968 2972 2976 2980 2984 2988 2992 2996 3000 3004 3008 3012 3016 3020 3024 3028 3032 3036 3040 3044 3048 3052 3056 3060 3064 3068 3072 3076 3080 3084 3088 3092 3096 3100 3104 3108 3112 3116 3120 3124 3128 3132 3136 3140 3144 3148 3152 3156 3160 3164 3168 3172 3176 3180 3184 3188 3192 3196 3200 3204 3208 3212 3216 3220 3224 3228 3232 3236 3240 3244 3248 3252 3256 3260 3264 3268 3272 3276 3280 3284 3288 3292 3296 3300 3304 3308 3312 3316 3320 3324 3328 3332 3336 3340 3344 3348 3352 3356 3360 3364 3368 3372 3376 3380 3384 3388 3392 3396 3400 3404 3408 3412 3416 3420 3424 3428 3432 3436 3440 3444 3448 3452 3456 3460 3464 3468 3472 3476 3480 3484 3488 3492 3496 3500 3504 3508 3512 3516 3520 3524 3528 3532 3536 3540 3544 3548 3552 3556 3560 3564 3568 3572 3576 3580 3584 3588 3592 3596 3600 3604 3608 3612 3616 3620 3624 3628 3632 3636 3640 3644 3648 3652 3656 3660 3664 3668 3672 3676 3680 3684 3688 3692 3696 3700 3704 3708 3712 3716 3720 3724 3728 3732 3736 3740 3744 3748 3752 3756 3760 3764 3768 3772 3776 3780 3784 3788 3792 3796 3800 3804 3808 3812 3816 3820 3824 3828 3832 3836 3840 3844 3848 3852 3856 3860 3864 3868 3872 3876 3880 3884 3888 3892 3896 3900 3904 3908 3912 3916 3920 3924 3928 3932 3936 3940 3944 3948 3952 3956 3960 3964 3968 3972 3976 3980 3984 3988 3992 3996 4000 4004 4008 4012 4016 4020 4024 4028 4032 4036 4040 4044 4048 4052 4056 4060 4064 4068 4072 4076 4080 4084 4088 4092 4096 4100 4104 4108 4112 4116 4120 4124 4128 4132 4136 4140 4144 4148 4152 4156 4160 4164 4168 4172 4176 4180 4184 4188 4192 4196 4200 4204 4208 4212 4216 4220 4224 4228 4232 4236 4240 4244 4248 4252 4256 4260 4264 4268 4272 4276 4280 4284 4288 4292 4296 4300 4304 4308 4312 4316 4320 4324 4328 4332 4336 4340 4344 4348 4352 4356 4360 4364 4368 4372 4376 4380 4384 4388 4392 4396 4400 4404 4408 4412 4416 4420 4424 4428 4432 4436 4440 4444 4448 4452 4456 4460 4464 4468 4472 4476 4480 4484 4488 4492 4496 4500 4504 4508 4512 4516 4520 4524 4528 4532 4536 4540 4544 4548 4552 4556 4560 4564 4568 4572 4576 4580 4584 4588 4592 4596 4600 4604 4608 4612 4616 4620 4624 4628 4632 4636 4640 4644 4648 4652 4656 4660 4664 4668 4672 4676 4680 4684 4688 4692 4696 4700 4704 4708 4712 4716 4720 4724 4728 4732 4736 4740 4744 4748 4752 4756 4760 4764 4768 4772 4776 4780 4784 4788 4792 4796 4800 4804 4808 4812 4816 4820 4824 4828 4832 4836 4840 4844 4848 4852 4856 4860 4864 4868 4872 4876 4880 4884 4888 4892 4896 4900 4904 4908 4912 4916 4920 4924 4928 4932 4936 4940 4944 4948 4952 4956 4960 4964 4968 4972 4976 4980 4984 4988 4992 4996 5000 5004 5008 5012 5016 5020 5024 5028 5032 5036 5040 5044 5048 5052 5056 5060 5064 5068 5072 5076 5080 5084 5088 5092 5096 5100 5104 5108 5112 5116 5120 5124 5128 5132 5136 5140 5144 5148 5152 5156 5160 5164 5168 5172 5176 5180 5184 5188 5192 5196 5200 5204 5208 5212 5216 5220 5224 5228 5232 5236 5240 5244 5248 5252 5256 5260 5264 5268 5272 5276 5280 5284 5288 5292 5296 5300 5304 5308 5312 5316 5320 5324 5328 5332 5336 5340 5344 5348 5352 5356 5360 5364 5368 5372 5376 5380 5384 5388 5392 5396 5400 5404 5408 5412 5416 5420 5424 5428 5432 5436 5440 5444 5448 5452 5456 5460 5464 5468 5472 5476 5480 5484 5488 5492 5496 5500 5504 5508 5512 5516 5520 5524 5528 5532 5536 5540 5544 5548 5552 5556 5560 5564 5568 5572 5576 5580 5584 5588 5592 5596 5600 5604 5608 5612 5616 5620 5624 5628 5632 5636 5640 5644 5648 5652 5656 5660 5664 5668 5672 5676 5680 5684 5688 5692 5696 5700 5704 5708 5712 5716 5720 5724 5728 5732 5736 5740 5744 5748 5752 5756 5760 5764 5768 5772 5776 5780 5784 5788 5792 5796 5800 5804 5808 5812 5816 5820 5824 5828 5832 5836 5840 5844 5848 5852 5856 5860 5864 5868 5872 5876 5880 5884 5888 5892 5896 5900 5904 5908 5912 5916 5920 5924 5928 5932 5936 5940 5944 5948 5952 5956 5960 5964 5968 5972 5976 5980 5984 5988 5992 5996 6000 6004 6008 6012 6016 6020 6024 6028 6032 6036 6040 6044 6048 6052 6056 6060 6064 6068 6072 6076 6080 6084 6088 6092 6096 6100 6104 6108 6112 6116 6120 6124 6128 6132 6136 6140 6144 6148 6152 6156 6160 6164 6168 6172 6176 6180 6184 6188 6192 6196 6200 6204 6208 6212 6216 6220 6224 6228 6232 6236 6240 6244 6248 6252 6256 6260 6264 6268 6272 6276 6280 6284 6288 6292 6296 6300 6304 6308 6312 6316 6320 6324 6328 6332 6336 6340 6344 6348 6352 6356 6360 6364 6368 6372 6376 6380 6384 6388 6392 6396 6400 6404 6408 6412 6416 6420 6424 6428 6432 6436 6440 6444 6448 6452 6456 6460 6464 6468 6472 6476 6480 6484 6488 6492 6496 6500 6504 6508 6512 6516 6520 6524 6528 6532 6536 6540 6544 6548 6552 6556 6560 6564 6568 6572 6576 6580 6584 6588 6592 6596 6600 6604 6608 6612 6616 6620 6624 6628 6632 6636 6640 6644 6648 6652 6656 6660 6664 6668 6672 6676 6680 6684 6688 6692 6696 6700 6704 6708 6712 6716 6720 6724 6728 6732 6736 6740 6744 6748 6752 6756 6760 6764 6768 6772 6776 6780 6784 6788 6792 6796 6800 6804 6808 6812 6816 6820 6824 6828 6832 6836 6840 6844 6848 6852 6856 6860 6864 6868 6872 6876 6880 6884 6888 6892 6896 6900 6904 6908 6912 6916 6920 6924 6928 6932 6936 6940 6944 6948 6952 6956 6960 6964 6968 6972 6976 6980 6984 6988 6992 6996 7000 7004 7008 7012 7016 7020 7024 7028 7032 7036 7040 7044 7048 7052 7056 7060 7064 7068 7072 7076 7080 7084 7088 7092 7096 7100 7104 7108 7112 7116 7120 7124 7128 7132 7136 7140 7144 7148 7152 7156 7160 7164 7168 7172 7176 7180 7184 7188 7192 7196 7200 7204 7208 7212 7216 7220 7224 7228 7232 7236 7240 7244 7248 7252 7256 7260 7264 7268 7272 7276 7280 7284 7288 7292 7296 7300 7304 7308 7312 7316 7320 7324 7328 7332 7336 7340 7344 7348 7352 7356 7360 7364 7368 7372 7376 7380 7384 7388 7392 7396 7400 7404 7408 7412 7416 7420 7424 7428 7432 7436 7440 7444 7448 7452 7456 7460 7464 7468 7472 7476 7480 7484 7488 7492 7496 7500 7504 7508 7512 7516 7520 7524 7528 7532 7536 7540 7544 7548 7552 7556 7560 7564 7568 7572 7576 7580 7584 7588 7592 7596 7600 7604 7608 7612 7616 7620 7624 7628 7632 7636 7640 7644 7648 7652 7656 7660 7664 7668 7672 7676 7680 7684 7688 7692 7696 7700 7704 7708 7712 7716 7720 7724 7728 7732 7736 7740 7744 7748 7752 7756 7760 7764 7768 7772 7776 7780 7784 7788 7792 7796 7800 7804 7808 7812 7816 7820 7824 7828 7832 7836 7840 7844 7848 7852 7856 7860 7864 7868 7872 7876 7880 7884 7888 7892 7896 7900 7904 7908 7912 7916 7920 7924 7928 7932 7936 7940 7944 7948 7952 7956 7960 7964 7968 7972 7976 7980 7984 7988 7992 7996 8000 8004 8008 8012 8016 8020 8024 8028 8032 8036 8040 8044 8048 8052 8056 8060 8064 8068 8072 8076 8080 8084 8088 8092 8096 8100 8104 8108 8112 8116 8120 8124 8128 8132 8136 8140 8144 8148 8152 8156 8160 8164 8168 8172 8176 8180 8184 8188 8192 8196 8200 8204 8208 8212 8216 8220 8224 8228 8232 8236 8240 8244 8248 8252 8256 8260 8264 8268 8272 8276 8280 8284 8288 8292 8296 8300 8304 8308 8312 8316 8320 8324 8328 8332 8336 8340 8344 8348 8352 8356 8360 8364 8368 8372 8376 8380 8384 8388 8392 8396 8400 8404 8408 8412 8416 8420 8424 8428 8432 8436 8440 8444 8448 8452 8456 8460 8464 8468 8472 8476 8480 8484 8488 8492 8496 8500 8504 8508 8512 8516 8520 8524 8528 8532 8536 8540 8544 8548 8552 8556 8560 8564 8568 8572 8576 8580 8584 8588 8592 8596 8600 8604 8608 8612 8616 8620 8624 8628 8632 8636 8640 8644 8648 8652 8656 8660 8664 8668 8672 8676 8680 8684 8688 8692 8696 8700 8704 8708 8712 8716 8720 8724 8728 8732 8736 8740 8744 8748 8752 8756 8760 8764 8768 8772 8776 8780 8784 8788 8792 8796 8800 8804 8808 8812 8816 8820 8824 8828 8832 8836 8840 8844 8848 8852 8856 8860 8864 8868 8872 8876 8880 8884 8888 8892 8896 8900 8904 8908 8912 8916 8920 8924 8928 8932 8936 8940 8944 8948 8952 8956 8960 8964 8968 8972 8976 8980 8984 8988 8992 8996 9000 9004 9008 9012 9016 9020 9024 9028 9032 9036 9040 9044 9048 9052 9056 9060 9064 9068 9072 9076 9080 9084 9088 9092 9096 9100 9104 9108 9112 9116 9120 9124 9128 9132 9136 9140 9144 9148 9152 9156 9160 9164 9168 9172 9176 9180 9184 9188 9192 9196 9200 9204 9208 9212 9216 9220 9224 9228 9232 9236 9240 9244 9248 9252 9256 9260 9264 9268 9272 9276 9280 9284 9288 9292 9296 9300 9304 9308 9312 9316 9320 9324 9328 9332 9336 9340 9344 9348 9352 9356 9360 9364 9368 9372 9376 9380 9384 9388 9392 9396 9400 9404 9408 9412 9416 9420 9424 9428 9432 9436 9440 9444 9448 9452 9456 9460 9464 9468 9472 9476 9480 9484 9488 9492 9496 9500 9504 9508 9512 9516 9520 9524 9528 9532 9536 9540 9544 9548 9552 9556 9560 9564 9568 9572 9576 9580 9584 9588 9592 9596 9600 9604 9608 9612 9616 9620 9624 9628 9632 9636 9640 9644 9648 9652 9656 9660 9664 9668 9672 9676 9680 9684 9688 9692 9696 9700 9704 9708 9712 9716 9720 9724 9728 9732 9736 9740 9744 9748 9752 9756 9760 9764 9768 9772 9776 9780 9784 9788 9792 9796 9800 9804 9808 9812 9816 9820 9824 9828 9832 9836 9840 9844 9848 9852 9856 9860 9864 9868 9872 9876 9880 9884 9888 9892 9896 9900 9904 9908 9912 9916 9920 9924 9928 9932 9936 9940 9944 9948 9952 9956 9960 9964 9968 9972 9976 9980 9984 9988 9992 9996 10000 10004 10008 10012 10016 10020 10024 10028 10032 10036 10040 10044 10048 10052 10056 10060 10064 10068 10072 10076 10080 10084 10088 10092 10096 10100 10104 10108 10112 10116 10120 10124 10128 10132 10136 10140 10144 10148 10152 10156 10160 10164 10168 10172 10176 10180 10184 10188 10192 10196 10200 10204 10208 10212 10216 10220 10224 10228 10232 10236 10240 10244 10248 10252 10256 10260 10264 10268 10272 10276 10280 10284 10288 10292 10296 10300 10304 10308 10312 10316 10320 10324 10328 10332 10336 10340 10344 10348 10352 10356 10360 10364 10368 10372 10376 10380 10384 10388 10392 10396 10400 10404 10408 10412 10416 10420 10424 10428 10432 10436 10440 10444 10448 10452 10456 10460 10464 10468 10472 10476 10480 10484 10488 10492 10496 10500 10504 10508 10512 10516 10520 10524 10528 10532 10536 10540 10544 10548 10552 10556 10560 10564 10568 10572 10576 10580 10584 10588 10592 10596 10600 10604 10608 10612 10616 10620 10624 10628 10632 10636 10640 10644 10648 10652 10656 10660 10664 10668 10672 10676 10680 10684 10688 10692 10696 10700 10704 10708 10712 10716 10720 10724 10728 10732 10736 10740 10744 10748 10752 10756 10760 10764 10768 10772 10776 10780 10784 10788 10792 10796 10800 10804 10808 10812 10816 10820 10824 10828 10832 10836 10840 10844 10848 10852 10856 10860 10864 10868 10872 10876 10880 10884 10888 10892 10896 10900 10904 10908 10912 10916 10920 10924 10928 10932 10936 10940 10944 10948 10952 10956 10960 10964 10968 10972 10976 10980 10984 10988 10992 10996 11000 11004 11008 11012 11016 11020 11024 11028 11032 11036 11040 11044 11048 11052 11056 11060 11064 11068 11072 11076 11080 11084 11088 11092 11096 11100 11104 11108 11112 11116 11120 11124 11128 11132 11136 11140 11144 11148 11152 11156 11160 11164 11168 11172 11176 11180 11184 11188 11192 11196 11200 11204 11208 11212 11216 11220 11224 11228 11232 11236 11240 11244 11248 11252 11256 11260 11264 11268 11272 11276 11280 11284 11288 11292 11296 11300 11304 11308 11312 11316 11320 11324 11328 11332 11336 11340 11344 11348 11352 11356 11360 11364 11368 11372 11376 11380 11384 11388 11392 11396 11400 11404 11408 11412 11416 11420 11424 11428 11432 11436 11440 11444 11448 11452 11456 11460 11464 11468 11472 11476 11480 11484 11488 11492 11496 11500 11504 11508 11512 11516 11520 11524 11528 11532 11536 11540 11544 11548 11552 11556 11560 11564 11568 11572 11576 11580 11584 11588 11592 11596 11600 11604 11608 11612 11616 11620 11624 11628 11632 11636 11640 11644 11648 11652 11656 11660 11664 11668 11672 11676 11680 11684 11688 11692 11696 11700 11704 11708 11712 11716 11720 11724 11728 11732 11736 11740 11744 11748 11752 11756 11760 11764 11768 11772 11776 11780 11784 11788 11792 11796 11800 11804 11808 11812 11816 11820 11824 11828 11832 11836 11840 11844 11848 11852 11856 11860 11864 11868 11872 11876 11880 11884 11888 11892 11896 11900 11904 11908 11912 11916 11920 11924 11928 11932 11936 11940 11944 11948 11952 11956 11960 11964 11968 11972 11976 11980 11984 11988 11992 11996 12000 12004 12008 12012 12016 12020 12024 12028 12032 12036 12040 12044 12048 12052 12056 12060 12064 12068 12072 12076 12080 12084 12088 12092 12096 12100 12104 12108 12112 12116 12120 12124 12128 12132 12136 12140 12144 12148 12152 12156 12160 12164 12168 12172 12176 12180 12184 12188 12192 12196 12200 12204 12208 12212 12216 12220 12224 12228 12232 12236 12240 12244 12248 12252 12256 12260 12264 12268 12272 12276 12280 12284 12288 12292 12296 12300 12304 12308 12312 12316 12320 12324 12328 12332 12336 12340 12344 12348 12352 12356 12360 12364 12368 12372 12376 12380 12384 12388 12392 12396 12400 12404 12408 12412 12416 12420 12424 12428 12432 12436 12440 12444 12448 12452 12456 12460 12464 12468 12472 12476 12480 12484 12488 12492 12496 12500 12504 12508 12512 12516 12520 12524 12528 12532 12536 12540 12544 12548 12552 12556 12560 12564 12568 12572 12576 12580 12584 12588 12592 12596 12600 12604 12608 12612 12616 12620 12624 12628 12632 12636 12640 12644 12648 12652 12656 12660 12664 12668 12672 12676 12680 12684 12688 12692 12696 12700 12704 12708 12712 12716 12720 12724 12728 12732 12736 12740 12744 12748 12752 12756 12760 12764 12768 12772 12776 12780 12784 12788 12792 12796 12800 12804 12808 12812 12816 12820 12824 12828 12832 12836 12840 12844 12848 12852 12856 12860 12864 12868 12872 12876 12880 12884 12888 12892 12896 12900 12904 12908 12912 12916 12920 12924 12928 12932 12936 12940 12944 12948 12952 12956 12960 12964 12968 12972 12976 12980 12984 12988 12992 12996 13000 13004 13008 13012 13016 13020 13024 13028 13032 13036 13040 13044 13048 13052 13056 13060 13064 13068 13072 13076 13080 13084 13088 13092 13096 13100 13104 13108 13112 13116 13120 13124 13128 13132 13136 13140 13144 13148 13152 13156 13160 13164 13168 13172 13176 13180 13184 13188 13192 13196 13200 13204 13208 13212 13216 13220 13224 13228 13232 13236 13240 13244 13248 13252 13256 13260 13264 13268 13272 13276 13280 13284 13288 13292 13296 13300 13304 13308 13312 13316 13320 13324 13328 13332 13336 13340 13344 13348 13352 13356 13360 13364 13368 13372 13376 13380 13384 13388 13392 13396 13400 13404 13408 13412 13416 13420 13424 13428 13432 13436 13440 13444 13448 13452 13456 13460 13464 13468 13472 13476 13480 13484 13488 13492 13496 13500 13504 13508 13512 13516 13520 13524 13528 13532 13536 13540 13544 13548 13552 13556 13560 13564 13568 13572 13576 13580 13584 13588 13592 13596 13600 13604 13608 13612 13616 13620 13624 13628 13632 13636 13640 13644 13648 13652 13656 13660 13664 13668 13672 13676 13680 13684 13688 13692 13696 13700 13704 13708 13712 13716 13720 13724 13728 13732 13736 13740 13744 13748 13752 13756 13760 13764 13768 13772 13776 13780 13784 13788 13792 13796 13800 13804 13808 13812 13816 13820 13824 13828 13832 13836 13840 13844 13848 13852 13856 13860 13864 13868 13872 13876 13880 13884 13888 13892 13896 13900 13904 13908 13912 13916 13920 13924 13928 13932 13936 13940 13944 13948 13952 13956 13960 13964 13968 13972 13976 13980 13984 13988 13992 13996 14000 14004 14008 14012 14016 14020 14024 14028 14032 14036 14040 14044 14048 14052 14056 14060 14064 14068 14072 14076 14080 14084 14088 14092 14096 14100 14104 14108 14112 14116 14120 14124 14128 14132 14136 14140 14144 14148 14152 14156 14160 14164 14168 14172 14176 14180 14184 14188 14192 14196 14200 14204 14208 14212 14216 14220 14224 14228 14232 14236 14240 14244 14248 14252 14256 14260 14264 14268 14272 14276 14280 14284 14288 14292 14296 14300 14304 14308 14312 14316 14320 14324 14328 14332 14336 14340 14344 14348 14352 14356 14360 14364 14368 14372 14376 14380 14384 14388 14392 14396 14400 14404 14408 14412 14416 14420 14424 14428 14432 14436 14440 14444 14448 14452 14456 14460 14464 14468 14472 14476 14480 14484 14488 14492 14496 14500 14504 14508 14512 14516 14520 14524 14528 14532 14536 14540 14544 14548 14552 14556 14560 14564 14568 14572 14576 14580 14584 14588 14592 14596 14600 14604 14608 14612 14616 14620 14624 14628 14632 14636 14640 14644 14648 14652 14656 14660 14664 14668 14672 14676 14680 14684 14688 14692 14696 14700 14704 14708 14712 14716 14720 14724 14728 14732 14736 14740 14744 14748 14752 14756 14760 14764 14768 14772 14776 14780 14784 14788 14792 14796 14800 14804 14808 14812 14816 14820 14824 14828 14832 14836 14840 14844 14848 14852 14856 14860 14864 14868 14872 14876 14880 14884 14888 14892 14896 14900 14904 14908 14912 14916 14920 14924 14928 14932 14936 14940 14944 14948 14952 14956 14960 14964 14968 14972 14976 14980 14984 14988 14992 14996 15000 15004 15008 15012 15016 15020 15024 15028 15032 15036 15040 15044 15048 15052 15056 15060 15064 15068 15072 15076 15080 15084 15088 15092 15096 15100 15104 15108 15112 15116 15120 15124 15128 15132 15136 15140 15144 15148 15152 15156 15160 15164 15168 15172 15176 15180 15184 15188 15192 15196 15200 15204 15208 15212 15216 15220 15224 15228 15232 15236 15240 15244 15248 15252 15256 15260 15264 15268 15272 15276 15280 15284 15288 15292 15296 15300 15304 15308 15312 15316 15320 15324 15328 15332 15336 15340 15344 15348 15352 15356 15360 15364 15368 15372 15376 15380 15384 15388 15392 15396 15400 15404 15408 15412 15416 15420 15424 15428 15432 15436 15440 15444 15448 15452 15456 15460 15464 15468 15472 15476 15480 15484 15488 15492 15496 15500 15504 15508 15512 15516 15520 15524 15528 15532 15536 15540 15544 15548 15552 15556 15560 15564 15568 15572 15576 15580 15584 15588 15592 15596 15600 15604 15608 15612 15616 15620 15624 15628 15632 15636 15640 15644 15648 15652 15656 15660 15664 15668 15672 15676 15680 15684 15688 15692 15696 15700 15704 15708 15712 15716 15720 15724 15728 15732 15736 15740 15744 15748 15752 15756 15760 15764 15768 15772 15776 15780 15784 15788 15792 15796 15800 15804 15808 15812 15816 15820 15824 15828 15832 15836 15840 15844 15848 15852 15856 15860 15864 15868 15872 15876 15880 15884 15888 15892 15896 15900 15904 15908 15912 15916 15920 15924 15928 15932 15936 15940 15944 15948 15952 15956 15960 15964 15968 15972 15976 15980 15984 15988 15992 15996 16000 16004 16008 16012 16016 16020 16024 16028 16032 16036 16040 16044 16048 16052 16056 16060 16064 16068 16072 16076 16080 16084 16088 16092 16096 16100 16104 16108 16112 16116 16120 16124 16128 16132 16136 16140 16144 16148 16152 16156 16160 16164 16168 16172 16176 16180 16184 16188 16192 16196 16200 16204 16208 16212 16216 16220 16224 16228 16232 16236 16240 16244 16248 16252 16256 16260 16264 16268 16272 16276 16280 16284 16288 16292 16296 16300 16304 16308 16312 16316 16320 16324 16328 16332 16336 16340 16344 16348 16352 16356 16360 16364 16368 16372 16376 16380 16384 16388 16392 16396 16400 16404 16408 16412 16416 16420 16424 16428 16432 16436 16440 16444 16448 16452 16456 16460 16464 16468 16472 16476 16480 16484 16488 16492 16496 16500 16504 16508 16512 16516 16520 16524 16528 16532 16536 16540 16544 16548 16552 16556 16560 16564 16568 16572 16576 16580 16584 16588 16592 16596 16600 16604 16608 16612 16616 16620 16624 16628 16632 16636 16640 16644 16648 16652 16656 16660 16664 16668 16672 16676 16680 16684 16688 16692 16696 16700 16704 16708 16712 16716 16720 16724 16728 16732 16736 16740 16744 16748 16752 16756 16760 16764 16768 16772 16776 16780 16784 16788 16792 16796 16800 16804 16808 16812 16816 16820 16824 16828 16832 16836 16840 16844 16848 16852 16856 16860 16864 16868 16872 16876 16880 16884 16888 16892 16896 16900 16904 16908 16912 16916 16920 16924 16928 16932 16936 16940 16944 16948 16952 16956 16960 16964 16968 16972 16976 16980 16984 16988 16992 16996 17000 17004 17008 17012 17016 17020 17024 17028 17032 17036 17040 17044 17048 17052 17056 17060 17064 17068 17072 17076 17080 17084 17088 17092 17096 17100 17104 17108 17112 17116 17120 17124 17128 17132 17136 17140 17144 17148 17152 17156 17160 17164 17168 17172 17176 17180 17184 17188 17192 17196 17200 17204 17208 17212 17216 17220 17224 17228 17232 17236 17240 17244 17248 17252 17256 17260 17264 17268 17272 17276 17280 17284 17288 17292 17296 17300 17304 17308 17312 17316 17320 17324 17328 17332 17336 17340 17344 17348 17352 17356 17360 17364 17368 17372 17376 17380 17384 17388 17392 17396 17400 17404 17408 17412 17416 17420 17424 17428 17432 17436 17440 17444 17448 17452 17456 17460 17464 17468 17472 17476 17480 17484 17488 17492 17496 17500 17504 17508 17512 17516 17520 17524 17528 17532 17536 17540 17544 17548 17552 17556 17560 17564 17568 17572 17576 17580 17584 17588 17592 17596 17600 17604 17608 17612 17616 17620 17624 17628 17632 17636 17640 17644 17648 17652 17656 17660 17664 17668 17672 17676 17680 17684 17688 17692 17696 17700 17704 17708 17712 17716 17720 17724 17728 17732 17736 17740 17744 17748 17752 17756 17760 17764 17768 17772 17776 17780 17784 17788 17792 17796 17800 17804 17808 17812 17816 17820 17824 17828 17832 17836 17840 17844 17848 17852 17856 17860 17864 17868 17872 17876 17880 17884 17888 17892 17896 17900 17904 17908 17912 17916 17920 17924 17928 17932 17936 17940 17944 17948 17952 17956 17960 17964 17968 17972 17976 17980 17984 17988 17992 17996 18000 18004 18008 18012 18016 18020 18024 18028 18032 18036 18040 18044 18048 18052 18056 18060 18064 18068 18072 18076 18080 18084 18088 18092 18096 18100 18104 18108 18112 18116 18120 18124 18128 18132 18136 18140 18144 18148 18152 18156 18160 18164 18168 18172 18176 18180 18184 18188 18192 18196 18200 18204 18208 18212 18216 18220 18224 18228 18232 18236 18240 18244 18248 18252 18256 18260 18264 18268 18272 18276 18280 18284 18288 18292 18296 18300 18304 18308 18312 18316 18320 18324 18328 18332 18336 18340 18344 18348 18352 18356 18360 18364 18368 18372 18376 18380 18384 18388 18392 18396 18400 18404 18408 18412 18416 18420 18424 18428 18432 18436 18440 18444 18448 18452 18456 18460 18464 18468 18472 18476 18480 18484 18488 18492 18496 18500 18504 18508 18512 18516 18520 18524 18528 18532 18536 18540 18544 18548 18552 18556 18560 18564 18568 18572 18576 18580 18584 18588 18592 18596 18600 18604 18608 18612 18616 18620 18624 18628 18632 18636 18640 18644 18648 18652 18656 18660 18664 18668 18672 18676 18680 18684 18688 18692 18696 18700 18704 18708 18712 18716 18720 18724 18728 18732 18736 18740 18744 18748 18752 18756 18760 18764 18768 18772 18776 18780 18784 18788 18792 18796 18800 18804 18808 18812 18816 18820 18824 18828 18832 18836 18840 18844 18848 18852 18856 18860 18864 18868 18872 18876 18880 18884 18888 18892 18896 18900 18904 18908 18912 18916 18920 18924 18928 18932 18936 18940 18944 18948 18952 18956 18960 18964 18968 18972 18976 18980 18984 18988 18992 18996 19000 19004 19008 19012 19016 19020 19024 19028 19032 19036 19040 19044 19048 19052 19056 19060 19064 19068 19072 19076 19080 19084 19088 19092 19096 19100 19104 19108 19112 19116 19120 19124 19128 19132 19136 19140 19144 19148 19152 19156 19160 19164 19168 19172 19176 19180 19184 19188 19192 19196 19200 19204 19208 19212 19216 19220 19224 19228 19232 19236 19240 19244 19248 19252 19256 19260 19264 19268 19272 19276 19280 19284 19288 19292 19296 19300 19304 19308 19312 19316 19320 19324 19328 19332 19336 19340 19344 19348 19352 19356 19360 19364 19368 19372 19376 19380 19384 19388 19392 19396 19400 19404 19408 19412 19416 19420 19424 19428 19432 19436 19440 19444 19448 19452 19456 19460 19464 19468 19472 19476 19480 19484 19488 19492 19496 19500 19504 19508 19512 19516 19520 19524 19528 19532 19536 19540 19544 19548 19552 19556 19560 19564 19568 19572 19576 19580 19584 19588 19592 19596 19600 19604 19608 19612 19616 19620 19624 19628 19632 19636 19640 19644 19648 19652 19656 19660 19664 19668 19672 19676 19680 19684 19688 19692 19696 19700 19704 19708 19712 19716 19720 19724 19728 19732 19736 19740 19744 19748 19752 19756 19760 19764 19768 19772 19776 19780 19784 19788 19792 19796 19800 19804 19808 19812 19816 19820 19824 19828 19832 19836 19840 19844 19848 19852 19856 19860 19864 19868 19872 19876 19880 19884 19888 19892 19896 19900 19904 19908 19912 19916 19920 19924 19928 19932 19936 19940 19944 19948 19952 19956 19960 19964 19968 19972 19976 19980 19984 19988 19992 19996 20000 20004 20008 20012 20016 20020 20024 20028 20032 20036 20040 20044 20048 20052 20056 20060 20064 20068 20072 20076 20080 20084 20088 20092 20096 20100 20104 20108 20112 20116 20120 20124 20128 20132 20136 20140 20144 20148 20152 20156 20160 20164 20168 20172 20176 20180 20184 20188 20192 20196 20200 20204 20208 20212 20216 20220 20224 20228 20232 20236 20240 20244 20248 20252 20256 20260 20264 20268 20272 20276 20280 20284 20288 20292 20296 20300 20304 20308 20312 20316 20320 20324 20328 20332 20336 20340 20344 20348 20352 20356 20360 20364 20368 20372 20376 20380 20384 20388 20392 20396 20400 20404 20408 20412 20416 20420 20424 20428 20432 20436 20440 20444 20448 20452 20456 20460 20464 20468 20472 20476 20480 20484 20488 20492 20496 20500 20504 20508 20512 20516 20520 20524 20528 20532 20536 20540 20544 20548 20552 20556 20560 20564 20568 20572 20576 20580 20584 20588 20592 20596 20600 20604 20608 20612 20616 20620 20624 20628 20632 20636 20640 20644 20648 20652 20656 20660 20664 20668 20672 20676 20680 20684 20688 20692 20696 20700 20704 20708 20712 20716 20720 20724 20728 20732 20736 20740 20744 20748 20752 20756 20760 20764 20768 20772 20776 20780 20784 20788 20792 20796 20800 20804 20808 20812 20816 20820 20824 20828 20832 20836 20840 20844 20848 20852 20856 20860 20864 20868 20872 20876 20880 20884 20888 20892 20896 20900 20904 20908 20912 20916 20920 20924 20928 20932 20936 20940 20944 20948 20952 20956 20960 20964 20968 20972 20976 20980 20984 20988 20992 20996 21000 21004 21008 21012 21016 21020 21024 21028 21032 21036 21040 21044 21048 21052 21056 21060 21064 21068 21072 21076 21080 21084 21088 21092 21096 21100 21104 21108 21112 21116 21120 21124 21128 21132 21136 21140 21144 21148 21152 21156 21160 21164 21168 21172 21176 21180 21184 21188 21192 21196 21200 21204 21208 21212 21216 21220 21224 21228 21232 21236 21240 21244 21248 21252 21256 21260 21264 21268 21272 21276 21280 21284 21288 21292 21296 21300 21304 21308 21312 21316 21320 21324 21328 21332 21336 21340 21344 21348 21352 21356 21360 21364 21368 21372 21376 21380 21384 21388 21392 21396 21400 21404 21408 21412 21416 21420 21424 21428 21432 21436 21440 21444 21448 21452 21456 21460 21464 21468 21472 21476 21480 21484 21488 21492 21496 21500 21504 21508 21512 21516 21520 21524 21528 21532 21536 21540 21544 21548 21552 21556 21560 21564 21568 21572 21576 21580 21584 21588 21592 21596 21600 21604 21608 21612 21616 21620 21624 21628 21632 21636 21640 21644 21648 21652 21656 21660 21664 21668 21672 21676 21680 21684 21688 21692 21696 21700 21704 21708 21712 21716 21720 21724 21728 21732 21736 21740 21744 21748 21752 21756 21760 21764 21768 21772 21776 21780 21784 21788 21792 21796 21800 21804 21808 21812 21816 21820 21824 21828 21832 21836 21840 21844 21848 21852 21856 21860 21864 21868 21872 21876 21880 21884 21888 21892 21896 21900 21904 21908 21912 21916 21920 21924 21928 21932 21936 21940 21944 21948 21952 21956 21960 21964 21968 21972 21976 21980 21984 21988 21992 21996 22000 22004 22008 22012 22016 22020 22024 22028 22032 22036 22040 22044 22048 22052 22056 22060 22064 22068 22072 22076 22080 22084 22088 22092 22096 22100 22104 22108 22112 22116 22120 22124 22128 22132 22136 22140 22144 22148 22152 22156 22160 22164 22168 22172 22176 22180 22184 22188 22192 22196 22200 22204 22208 22212 22216 22220 22224 22228 22232 22236 22240 22244 22248 22252 22256 22260 22264 22268 22272 22276 22280 22284 22288 22292 22296 22300 22304 22308 22312 22316 22320 22324 22328 22332 22336 22340 22344 22348 22352 22356 22360 22364 22368 22372 22376 22380 22384 22388 22392 22396 22400 22404 22408 22412 22416 22420 22424 22428 22432 22436 22440 22444 22448 22452 22456 22460 22464 22468 22472 22476 22480 22484 22488 22492 22496 22500 22504 22508 22512 22516 22520 22524 22528 22532 22536 22540 22544 22548 22552 22556 22560 22564 22568 22572 22576 22580 22584 22588 22592 22596 22600 22604 22608 22612 22616 22620 22624 22628 22632 22636 22640 22644 22648 22652 22656 22660 22664 22668 22672 22676 22680 22684 22688 22692 22696 22700 22704 22708 22712 22716 22720 22724 22728 22732 22736 22740 22744 22748 22752 22756 22760 22764 22768 22772 22776 22780 22784 22788 22792 22796 22800 22804 22808 22812 22816 22820 22824 22828 22832 22836 22840 22844 22848 22852 22856 22860 22864 22868 22872 22876 22880 22884 22888 22892 22896 22900 22904 22908 22912 22916 22920 22924 22928 22932 22936 22940 22944 22948 22952 22956 22960 22964 22968 22972 22976 22980 22984 22988 22992 22996 23000 23004 23008 23012 23016 23020 23024 23028 23032 23036 23040 23044 23048 23052 23056 23060 23064 23068 23072 23076 23080 23084 23088 23092 23096 23100 23104 23108 23112 23116 23120 23124 23128 23132 23136 23140 23144 23148 23152 23156 23160 23164 23168 23172 23176 23180 23184 23188 23192 23196 23200 23204 23208 23212 23216 23220 23224 23228 23232 23236 23240 23244 23248 23252 23256 23260 23264 23268 23272 23276 23280 23284 23288 23292 23296 23300 23304 23308 23312 23316 23320 23324 23328 23332 23336 23340 23344 23348 23352 23356 23360 23364 23368 23372 23376 23380 23384 23388 23392 23396 23400 23404 23408 23412 23416 23420 23424 23428 23432 23436 23440 23444 23448 23452 23456 23460 23464 23468 23472 23476 23480 23484 23488 23492 23496 23500 23504 23508 23512 23516 23520 23524 23528 23532 23536 23540 23544 23548 23552 23556 23560 23564 23568 23572 23576 23580 23584 23588 23592 23596 23600 23604 23608 23612 23616 23620 23624 23628 23632 23636 23640 23644 23648 23652 23656 23660 23664 23668 23672 23676 23680 23684 23688 23692 23696 23700 23704 23708 23712 23716 23720 23724 23728 23732 23736 23740 23744 23748 23752 23756 23760 23764 23768 23772 23776 23780 23784 23788 23792 23796 23800 23804 23808 23812 23816 23820 23824 23828 23832 23836 23840 23844 23848 23852 23856 23860 23864 23868 23872 23876 23880 23884 23888 23892 23896 23900 23904 23908 23912 23916 23920 23924 23928 23932 23936 23940 23944 23948 23952 23956 23960 23964 23968 23972 23976 23980 23984 23988 23992 23996 24000 24004 24008 24012 24016 24020 24024 24028 24032 24036 24040 24044 24048 24052 24056 24060 24064 24068 24072 24076 24080 24084 24088 24092 24096 24100 24104 24108 24112 24116 24120 24124 24128 24132 24136 24140 24144 24148 24152 24156 24160 24164 24168 24172 24176 24180 24184 24188 24192 24196 24200 24204 24208 24212 24216 24220 24224 24228 24232 24236 24240 24244 24248 24252 24256 24260 24264 24268 24272 24276 24280 24284 24288 24292 24296 24300 24304 24308 24312 24316 24320 24324 24328 24332 24336 24340 24344 24348 24352 24356 24360 24364 24368 24372 24376 24380 24384 24388 24392 24396 24400 24404 24408 24412 24416 24420 24424 24428 24432 24436 24440 24444 24448 24452 24456 24460 24464 24468 24472 24476 24480 24484 24488 24492 24496 24500 24504 24508 24512 24516 24520 24524 24528 24532 24536 24540 24544 24548 24552 24556 24560 24564 24568 24572 24576 24580 24584 24588 24592 24596 24600 24604 24608 24612 24616 24620 24624 24628 24632 24636 24640 24644 24648 24652 24656 24660 24664 24668 24672 24676 24680 24684 24688 24692 24696 24700 24704 24708 24712 24716 24720 24724 24728 24732 24736 24740 24744 24748 24752 24756 24760 24764 24768 24772 24776 24780 24784 24788 24792 24796 24800 24804 24808 24812 24816 24820 24824 24828 24832 24836 24840 24844 24848 24852 24856 24860 24864 24868 24872 24876 24880 24884 24888 24892 24896 24900 24904 24908 24912 24916 24920 24924 24928 24932 24936 24940 24944 24948 24952 24956 24960 24964 24968 24972 24976 24980 24984 24988 24992 24996 25000 25004 25008 25012 25016 25020 25024 25028 25032 25036 25040 25044 25048 25052 25056 25060 25064 25068 25072 25076 25080 25084 25088 25092 25096 25100 25104 25108 25112 25116 25120 25124 25128 25132 25136 25140 25144 25148 25152 25156 25160 25164 25168 25172 25176 25180 25184 25188 25192 25196 25200 25204 25208 25212 25216 25220 25224 25228 25232 25236 25240 25244 25248 25252 25256 25260 25264 25268 25272 25276 25280 25284 25288 25292 25296 25300 25304 25308 25312 25316 25320 25324 25328 25332 25336 25340 25344 25348 25352 25356 25360 25364 25368 25372 25376 25380 25384 25388 25392 25396 25400 25404 25408 25412 25416 25420 25424 25428 25432 25436 25440 25444 25448 25452 25456 25460 25464 25468 25472 25476 25480 25484 25488 25492 25496 25500 25504 25508 25512 25516 25520 25524 25528 25532 25536 25540 25544 25548 25552 25556 25560 25564 25568 25572 25576 25580 25584 25588 25592 25596 25600 25604 25608 25612 25616 25620 25624 25628 25632 25636 25640 25644 25648 25652 25656 25660 25664 25668 25672 25676 25680 25684 25688 25692 25696 25700 25704 25708 25712 25716 25720 25724 25728 25732 25736 25740 25744 25748 25752 25756 25760 25764 25768 25772 25776 25780 25784 25788 25792 25796 25800 25804 25808 25812 25816 25820 25824 25828 25832 25836 25840 25844 25848 25852 25856 25860 25864 25868 25872 25876 25880 25884 25888 25892 25896 25900 25904 25908 25912 25916 25920 25924 25928 25932 25936 25940 25944 25948 25952 25956 25960 25964 25968 25972 25976 25980 25984 25988 25992 25996 26000 26004 26008 26012 26016 26020 26024 26028 26032 26036 26040 26044 26048 26052 26056 26060 26064 26068 26072 26076 26080 26084 26088 26092 26096 26100 26104 26108 26112 26116 26120 26124 26128 26132 26136 26140 26144 26148 26152 26156 26160 26164 26168 26172 26176 26180 26184 26188 26192 26196 26200 26204 26208 26212 26216 26220 26224 26228 26232 26236 26240 26244 26248 26252 26256 26260 26264 26268 26272 26276 26280 26284 26288 26292 26296 26300 26304 26308 26312 26316 26320 26324 26328 26332 26336 26340 26344 26348 26352 26356 26360 26364 26368 26372 26376 26380 26384 26388 26392 26396 26400 26404 26408 26412 26416 26420 26424 26428 26432 26436 26440 26444 26448 26452 26456 26460 26464 26468 26472 26476 26480 26484 26488 26492 26496 26500 26504 26508 26512 26516 26520 26524 26528 26532 26536 26540 26544 26548 26552 26556 26560 26564 26568 26572 26576 26580 26584 26588 26592 26596 26600 26604 26608 26612 26616 26620 26624 26628 26632 26636 26640 26644 26648 26652 26656 26660 26664 26668 26672 26676 26680 26684 26688 26692 26696 26700 26704 26708 26712 26716 26720 26724 26728 26732 26736 26740 26744 26748 26752 26756 26760 26764 26768 26772 26776 26780 26784 26788 26792 26796 26800 26804 26808 26812 26816 26820 26824 26828 26832 26836 26840 26844 26848 26852 26856 26860 26864 26868 26872 26876 26880 26884 26888 26892 26896 26900 26904 26908 26912 26916 26920 26924 26928 26932 26936 26940 26944 26948 26952 26956 26960 26964 26968 26972 26976 26980 26984 26988 26992 26996 27000 27004 27008 27012 27016 27020 27024 27028 27032 27036 27040 27044 27048 27052 27056 27060 27064 27068 27072 27076 27080 27084 27088 27092 27096 27100 27104 27108 27112 27116 27120 27124 27128 27132 27136 27140 27144 27148 27152 27156 27160 27164 27168 27172 27176 27180 27184 27188 27192 27196 27200 27204 27208 27212 27216 27220 27224 27228 27232 27236 27240 27244 27248 27252 27256 27260 27264 27268 27272 27276 27280 27284 27288 27292 27296 27300 27304 27308 27312 27316 27320 27324 27328 27332 27336 27340 27344 27348 27352 27356 27360 27364 27368 27372 27376 27380 27384 27388 27392 27396 27400 27404 27408 27412 27416 27420 27424 27428 27432 27436 27440 27444 27448 27452 27456 27460 27464 27468 27472 27476 27480 27484 27488 27492 27496 27500 27504 27508 27512 27516 27520 27524 27528 27532 27536 27540 27544 27548 27552 27556 27560 27564 27568 27572 27576 27580 27584 27588 27592 27596 27600 27604 27608 27612 27616 27620 27624 27628 27632 27636 27640 27644 27648 27652 27656 27660 27664 27668 27672 27676 27680 27684 27688 27692 27696 27700 27704 27708 27712 27716 27720 27724 27728 27732 27736 27740 27744 27748 27752 27756 27760 27764 27768 27772 27776 27780 27784 27788 27792 27796 27800 27804 27808 27812 27816 27820 27824 27828 27832 27836 27840 27844 27848 27852 27856 27860 27864 27868 27872 27876 27880 27884 27888 27892 27896 27900 27904 27908 27912 27916 27920 27924 27928 27932 27936 27940 27944 27948 27952 27956 27960 27964 27968 27972 27976 27980 27984 27988 27992 27996 28000 28004 28008 28012 28016 28020 28024 28028 28032 28036 28040 28044 28048 28052 28056 28060 28064 28068 28072 28076 28080 28084 28088 28092 28096 28100 28104 28108 28112 28116 28120 28124 28128 28132 28136 28140 28144 28148 28152 28156 28160 28164 28168 28172 28176 28180 28184 28188 28192 28196 28200 28204 28208 28212 28216 28220 28224 28228 28232 28236 28240 28244 28248 28252 28256 28260 28264 28268 28272 28276 28280 28284 28288 28292 28296 28300 28304 28308 28312 28316 28320 28324 28328 28332 28336 28340 28344 28348 28352 28356 28360 28364 28368 28372 28376 28380 28384 28388 28392 28396 28400 28404 28408 28412 28416 28420 28424 28428 28432 28436 28440 28444 28448 28452 28456 28460 28464 28468 28472 28476 28480 28484 28488 28492 28496 28500 28504 28508 28512 28516 28520 28524 28528 28532 28536 28540 28544 28548 28552 28556 28560 28564 28568 28572 28576 28580 28584 28588 28592 28596 28600 28604 28608 28612 28616 28620 28624 28628 28632 28636 28640 28644 28648 28652 28656 28660 28664 28668 28672 28676 28680 28684 28688 28692 28696 28700 28704 28708 28712 28716 28720 28724 28728 28732 28736 28740 28744 28748 28752 28756 28760 28764 28768 28772 28776 28780 28784 28788 28792 28796 28800 28804 28808 28812 28816 28820 28824 28828 28832 28836 28840 28844 28848 28852 28856 28860 28864 28868 28872 28876 28880 28884 28888 28892 28896 28900 28904 28908 28912 28916 28920 28924 28928 28932 28936 28940 28944 28948 28952 28956 28960 28964 28968 28972 28976 28980 28984 28988 28992 28996 29000 29004 29008 29012 29016 29020 29024 29028 29032 29036 29040 29044 29048 29052 29056 29060 29064 29068 29072 29076 29080 29084 29088 29092 29096 29100 29104 29108 29112 29116 29120 29124 29128 29132 29136 29140 29144 29148 29152 29156 29160 29164 29168 29172 29176 29180 29184 29188 29192 29196 29200 29204 29208 29212 29216 29220 29224 29228 29232 29236 29240 29244 29248 29252 29256 29260 29264 29268 29272 29276 29280 29284 29288 29292 29296 29300 29304 29308 29312 29316 29320 29324 29328 29332 29336 29340 29344 29348 29352 29356 29360 29364 29368 29372 29376 29380 29384 29388 29392 29396 29400 29404 29408 29412 29416 29420 29424 29428 29432 29436 29440 29444 29448 29452 29456 29460 29464 29468 29472 29476 29480 29484 29488 29492 29496 29500 29504 29508 29512 29516 29520 29524 29528 29532 29536 29540 29544 29548 29552 29556 29560 29564 29568 29572 29576 29580 29584 29588 29592 29596 29600 29604 29608 29612 29616 29620 29624 29628 29632 29636 29640 29644 29648 29652 29656 29660 29664 29668 29672 29676 29680 29684 29688 29692 29696 29700 29704 29708 29712 29716 29720 29724 29728 29732 29736 29740 29744 29748 29752 29756 29760 29764 29768 29772 29776 29780 29784 29788 29792 29796 29800 29804 29808 29812 29816 29820 29824 29828 29832 29836 29840 29844 29848 29852 29856 29860 29864 29868 29872 29876 29880 29884 29888 29892 29896 29900 29904 29908 29912 29916 29920 29924 29928 29932 29936 29940 29944 29948 29952 29956 29960 29964 29968 29972 29976 29980 29984 29988 29992 29996 30000 30004 30008 30012 30016 30020 30024 30028 30032 30036 30040 30044 30048 30052 30056 30060 30064 30068 30072 30076 30080 30084 30088 30092 30096 30100 30104 30108 30112 30116 30120 30124 30128 30132 30136 30140 30144 30148 30152 30156 30160 30164 30168 30172 30176 30180 30184 30188 30192 30196 30200 30204 30208 30212 30216 30220 30224 30228 30232 30236 30240 30244 30248 30252 30256 30260 30264 30268 30272 30276 30280 30284 30288 30292 30296 30300 30304 30308 30312 30316 30320 30324 30328 30332 30336 30340 30344 30348 30352 30356 30360 30364 30368 30372 30376 30380 30384 30388 30392 30396 30400 30404 30408 30412 30416 30420 30424 30428 30432 30436 30440 30444 30448 30452 30456 30460 30464 30468 30472 30476 30480 30484 30488 30492 30496 30500 30504 30508 30512 30516 30520 30524 30528 30532 30536 30540 30544 30548 30552 30556 30560 30564 30568 30572 30576 30580 30584 30588 30592 30596 30600 30604 30608 30612 30616 30620 30624 30628 30632 30636 30640 30644 30648 30652 30656 30660 30664 30668 30672 30676 30680 30684 30688 30692 30696 30700 30704 30708 30712 30716 30720 30724 30728 30732 30736 30740 30744 30748 30752 30756 30760 30764 30768 30772 30776 30780 30784 30788 30792 30796 30800 30804 30808 30812 30816 30820 30824 30828 30832 30836 30840 30844 30848 30852 30856 30860 30864 30868 30872 30876 30880 30884 30888 30892 30896 30900 30904 30908 30912 30916 30920 30924 30928 30932 30936 30940 30944 30948 30952 30956 30960 30964 30968 30972 30976 30980 30984 30988 30992 30996 31000 31004 31008 31012 31016 31020 31024 31028 31032 31036 31040 31044 31048 31052 31056 31060 31064 31068 31072 31076 31080 31084 31088 31092 31096 31100 31104 31108 31112 31116 31120 31124 31128 31132 31136 31140 31144 31148 31152 31156 31160 31164 31168 31172 31176 31180 31184 31188 31192 31196 31200 31204 31208 31212 31216 31220 31224 31228 31232 31236 31240 31244 31248 31252 31256 31260 31264 31268 31272 31276 31280 31284 31288 31292 31296 31300 31304 31308 31312 31316 31320 31324 31328 31332 31336 31340 31344 31348 31352 31356 31360 31364 31368 31372 31376 31380 31384 31388 31392 31396 31400 31404 31408 31412 31416 31420 31424 31428 31432 31436 31440 31444 31448 31452 31456 31460 31464 31468 31472 31476 31480 31484 31488 31492 31496 31500 31504 31508 31512 31516 31520 31524 31528 31532 31536 31540 31544 31548 31552 31556 31560 31564 31568 31572 31576 31580 31584 31588 31592 31596 31600 31604 31608 31612 31616 31620 31624 31628 31632 31636 31640 31644 31648 31652 31656 31660 31664 31668 31672 31676 31680 31684 31688 31692 31696 31700 31704 31708 31712 31716 31720 31724 31728 31732 31736 31740 31744 31748 31752 31756 31760 31764 31768 31772 31776 31780 31784 31788 31792 31796 31800 31804 31808 31812 31816 31820 31824 31828 31832 31836 31840 31844 31848 31852 31856 31860 31864 31868 31872 31876 31880 31884 31888 31892 31896 31900 31904 31908 31912 31916 31920 31924 31928 31932 31936 31940 31944 31948 31952 31956 31960 31964 31968 31972 31976 31980 31984 31988 31992 31996 32000 32004 32008 32012 32016 32020 32024 32028 32032 32036 32040 32044 32048 32052 32056 32060 32064 32068 32072 32076 32080 32084 32088 32092 32096 32100 32104 32108 32112 32116 32120 32124 32128 32132 32136 32140 32144 32148 32152 32156 32160 32164 32168 32172 32176 32180 32184 32188 32192 32196 32200 32204 32208 32212 32216 32220 32224 32228 32232 32236 32240 32244 32248 32252 32256 32260 32264 32268 32272 32276 32280 32284 32288 32292 32296 32300 32304 32308 32312 32316 32320 32324 32328 32332 32336 32340 32344 32348 32352 32356 32360 32364 32368 32372 32376 32380 32384 32388 32392 32396 32400 32404 32408 32412 32416 32420 32424 32428 32432 32436 32440 32444 32448 32452 32456 32460 32464 32468 32472 32476 32480 32484 32488 32492 32496 32500 32504 32508 32512 32516 32520 32524 32528 32532 32536 32540 32544 32548 32552 32556 32560 32564 32568 32572 32576 32580 32584 32588 32592 32596 32600 32604 32608 32612 32616 32620 32624 32628 32632 32636 32640 32644 32648 32652 32656 32660 32664 32668 32672 32676 32680 32684 32688 32692 32696 32700 32704 32708 32712 32716 32720 32724 32728 32732 32736 32740 32744 32748 32752 32756 32760 32764 32768 32772 32776 32780 32784 32788 32792 32796 32800 32804 32808 32812 32816 32820 32824 32828 32832 32836 32840 32844 32848 32852 32856 32860 32864 32868 32872 32876 32880 32884 32888 32892 32896 32900 32904 32908 32912 32916 32920 32924 32928 32932 32936 32940 32944 32948 32952 32956 32960 32964 32968 32972 32976 32980 32984 32988 32992 32996 33000 33004 33008 33012 33016 33020 33024 33028 33032 33036 33040 33044 33048 33052 33056 33060 33064 33068 33072 33076 33080 33084 33088 33092 33096 33100 33104 33108 33112 33116 33120 33124 33128 33132 33136 33140 33144 33148 33152 33156 33160 33164 33168 33172 33176 33180 33184 33188 33192 33196 33200 33204 33208 33212 33216 33220 33224 33228 33232 33236 33240 33244 33248 33252 33256 33260 33264 33268 33272 33276 33280 33284 33288 33292 33296 33300 33304 33308 33312 33316 33320 33324 33328 33332 33336 33340 33344 33348 33352 33356 33360 33364 33368 33372 33376 33380 33384 33388 33392 33396 33400 33404 33408 33412 33416 33420 33424 33428 33432 33436 33440 33444 33448 33452 33456 33460 33464 33468 33472 33476 33480 33484 33488 33492 33496 33500 33504 33508 33512 33516 33520 33524 33528 33532 33536 33540 33544 33548 33552 33556 33560 33564 33568 33572 33576 33580 33584 33588 33592 33596 33600 33604 33608 33612 33616 33620 33624 33628 33632 33636 33640 33644 33648 33652 33656 33660 33664 33668 33672 33676 33680 33684 33688 33692 33696 33700 33704 33708 33712 33716 33720 33724 33728 33732 33736 33740 33744 33748 33752 33756 33760 33764 33768 33772 33776 33780 33784 33788 33792 33796 33800 33804 33808 33812 33816 33820 33824 33828 33832 33836 33840 33844 33848 33852 33856 33860 33864 33868 33872 33876 33880 33884 33888 33892 33896 33900 33904 33908 33912 33916 33920 33924 33928 33932 33936 33940 33944 33948 33952 33956 33960 33964 33968 33972 33976 33980 33984 33988 33992 33996 34000 34004 34008 34012 34016 34020 34024 34028 34032 34036 34040 34044 34048 34052 34056 34060 34064 34068 34072 34076 34080 34084 34088 34092 34096 34100 34104 34108 34112 34116 34120 34124 34128 34132 34136 34140 34144 34148 34152 34156 34160 34164 34168 34172 34176 34180 34184 34188 34192 34196 34200 34204 34208 34212 34216 34220 34224 34228 34232 34236 34240 34244 34248 34252 34256 34260 34264 34268 34272 34276 34280 34284 34288 34292 34296 34300 34304 34308 34312 34316 34320 34324 34328 34332 34336 34340 34344 34348 34352 34356 34360 34364 34368 34372 34376 34380 34384 34388 34392 34396 34400 34404 34408 34412 34416 34420 34424 34428 34432 34436 34440 34444 34448 34452 34456 34460 34464 34468 34472 34476 34480 34484 34488 34492 34496 
</DataArray> 
<DataArray type="Int32" Name="types"> 
9 9 9 9 9 9 9 9 9 9 9 9 9 9 9 9 9 9 9 9 9 9 9 9 9 9 9 9 9 9 9 9 9 9 9 9 9 9 9 9 9 9 9 9 9 9 9 9 9 9 9 9 9 9 9 9 9 9 9 9 9 9 9 9 9 9 9 9 9 9 9 9 9 9 9 9 9 9 9 9 9 9 9 9 9 9 9 9 9 9 9 9 9 9 9 9 9 9 9 9 9 9 9 9 9 9 9 9 9 9 9 9 9 9 9 9 9 9 9 9 9 9 9 9 9 9 9 9 9 9 9 9 9 9 9 9 9 9 9 9 9 9 9 9 9 9 9 9 9 9 9 9 9 9 9 9 9 9 9 9 9 9 9 9 9 9 9 9 9 9 9 9 9 9 9 9 9 9 9 9 9 9 9 9 9 9 9 9 9 9 9 9 9 9 9 9 9 9 9 9 9 9 9 9 9 9 9 9 9 9 9 9 9 9 9 9 9 9 9 9 9 9 9 9 9 9 9 9 9 9 9 9 9 9 9 9 9 9 9 9 9 9 9 9 9 9 9 9 9 9 9 9 9 9 9 9 9 9 9 9 9 9 9 9 9 9 9 9 9 9 9 9 9 9 9 9 9 9 9 9 9 9 9 9 9 9 9 9 9 9 9 9 9 9 9 9 9 9 9 9 9 9 9 9 9 9 9 9 9 9 9 9 9 9 9 9 9 9 9 9 9 9 9 9 9 9 9 9 9 9 9 9 9 9 9 9 9 9 9 9 9 9 9 9 9 9 9 9 9 9 9 9 9 9 9 9 9 9 9 9 9 9 9 9 9 9 9 9 9 9 9 9 9 9 9 9 9 9 9 9 9 9 9 9 9 9 9 9 9 9 9 9 9 9 9 9 9 9 9 9 9 9 9 9 9 9 9 9 9 9 9 9 9 9 9 9 9 9 9 9 9 9 9 9 9 9 9 9 9 9 9 9 9 9 9 9 9 9 9 9 9 9 9 9 9 9 9 9 9 9 9 9 9 9 9 9 9 9 9 9 9 9 9 9 9 9 9 9 9 9 9 9 9 9 9 9 9 9 9 9 9 9 9 9 9 9 9 9 9 9 9 9 9 9 9 9 9 9 9 9 9 9 9 9 9 9 9 9 9 9 9 9 9 9 9 9 9 9 9 9 9 9 9 9 9 9 9 9 9 9 9 9 9 9 9 9 9 9 9 9 9 9 9 9 9 9 9 9 9 9 9 9 9 9 9 9 9 9 9 9 9 9 9 9 9 9 9 9 9 9 9 9 9 9 9 9 9 9 9 9 9 9 9 9 9 9 9 9 9 9 9 9 9 9 9 9 9 9 9 9 9 9 9 9 9 9 9 9 9 9 9 9 9 9 9 9 9 9 9 9 9 9 9 9 9 9 9 9 9 9 9 9 9 9 9 9 9 9 9 9 9 9 9 9 9 9 9 9 9 9 9 9 9 9 9 9 9 9 9 9 9 9 9 9 9 9 9 9 9 9 9 9 9 9 9 9 9 9 9 9 9 9 9 9 9 9 9 9 9 9 9 9 9 9 9 9 9 9 9 9 9 9 9 9 9 9 9 9 9 9 9 9 9 9 9 9 9 9 9 9 9 9 9 9 9 9 9 9 9 9 9 9 9 9 9 9 9 9 9 9 9 9 9 9 9 9 9 9 9 9 9 9 9 9 9 9 9 9 9 9 9 9 9 9 9 9 9 9 9 9 9 9 9 9 9 9 9 9 9 9 9 9 9 9 9 9 9 9 9 9 9 9 9 9 9 9 9 9 9 9 9 9 9 9 9 9 9 9 9 9 9 9 9 9 9 9 9 9 9 9 9 9 9 9 9 9 9 9 9 9 9 9 9 9 9 9 9 9 9 9 9 9 9 9 9 9 9 9 9 9 9 9 9 9 9 9 9 9 9 9 9 9 9 9 9 9 9 9 9 9 9 9 9 9 9 9 9 9 9 9 9 9 9 9 9 9 9 9 9 9 9 9 9 9 9 9 9 9 9 9 9 9 9 9 9 9 9 9 9 9 9 9 9 9 9 9 9 9 9 9 9 9 9 9 9 9 9 9 9 9 9 9 9 9 9 9 9 9 9 9 9 9 9 9 9 9 9 9 9 9 9 9 9 9 9 9 9 9 9 9 9 9 9 9 9 9 9 9 9 9 9 9 9 9 9 9 9 9 9 9 9 9 9 9 9 9 9 9 9 9 9 9 9 9 9 9 9 9 9 9 9 9 9 9 9 9 9 9 9 9 9 9 9 9 9 9 9 9 9 9 9 9 9 9 9 9 9 9 9 9 9 9 9 9 9 9 9 9 9 9 9 9 9 9 9 9 9 9 9 9 9 9 9 9 9 9 9 9 9 9 9 9 9 9 9 9 9 9 9 9 9 9 9 9 9 9 9 9 9 9 9 9 9 9 9 9 9 9 9 9 9 9 9 9 9 9 9 9 9 9 9 9 9 9 9 9 9 9 9 9 9 9 9 9 9 9 9 9 9 9 9 9 9 9 9 9 9 9 9 9 9 9 9 9 9 9 9 9 9 9 9 9 9 9 9 9 9 9 9 9 9 9 9 9 9 9 9 9 9 9 9 9 9 9 9 9 9 9 9 9 9 9 9 9 9 9 9 9 9 9 9 9 9 9 9 9 9 9 9 9 9 9 9 9 9 9 9 9 9 9 9 9 9 9 9 9 9 9 9 9 9 9 9 9 9 9 9 9 9 9 9 9 9 9 9 9 9 9 9 9 9 9 9 9 9 9 9 9 9 9 9 9 9 9 9 9 9 9 9 9 9 9 9 9 9 9 9 9 9 9 9 9 9 9 9 9 9 9 9 9 9 9 9 9 9 9 9 9 9 9 9 9 9 9 9 9 9 9 9 9 9 9 9 9 9 9 9 9 9 9 9 9 9 9 9 9 9 9 9 9 9 9 9 9 9 9 9 9 9 9 9 9 9 9 9 9 9 9 9 9 9 9 9 9 9 9 9 9 9 9 9 9 9 9 9 9 9 9 9 9 9 9 9 9 9 9 9 9 9 9 9 9 9 9 9 9 9 9 9 9 9 9 9 9 9 9 9 9 9 9 9 9 9 9 9 9 9 9 9 9 9 9 9 9 9 9 9 9 9 9 9 9 9 9 9 9 9 9 9 9 9 9 9 9 9 9 9 9 9 9 9 9 9 9 9 9 9 9 9 9 9 9 9 9 9 9 9 9 9 9 9 9 9 9 9 9 9 9 9 9 9 9 9 9 9 9 9 9 9 9 9 9 9 9 9 9 9 9 9 9 9 9 9 9 9 9 9 9 9 9 9 9 9 9 9 9 9 9 9 9 9 9 9 9 9 9 9 9 9 9 9 9 9 9 9 9 9 9 9 9 9 9 9 9 9 9 9 9 9 9 9 9 9 9 9 9 9 9 9 9 9 9 9 9 9 9 9 9 9 9 9 9 9 9 9 9 9 9 9 9 9 9 9 9 9 9 9 9 9 9 9 9 9 9 9 9 9 9 9 9 9 9 9 9 9 9 9 9 9 9 9 9 9 9 9 9 9 9 9 9 9 9 9 9 9 9 9 9 9 9 9 9 9 9 9 9 9 9 9 9 9 9 9 9 9 9 9 9 9 9 9 9 9 9 9 9 9 9 9 9 9 9 9 9 9 9 9 9 9 9 9 9 9 9 9 9 9 9 9 9 9 9 9 9 9 9 9 9 9 9 9 9 9 9 9 9 9 9 9 9 9 9 9 9 9 9 9 9 9 9 9 9 9 9 9 9 9 9 9 9 9 9 9 9 9 9 9 9 9 9 9 9 9 9 9 9 9 9 9 9 9 9 9 9 9 9 9 9 9 9 9 9 9 9 9 9 9 9 9 9 9 9 9 9 9 9 9 9 9 9 9 9 9 9 9 9 9 9 9 9 9 9 9 9 9 9 9 9 9 9 9 9 9 9 9 9 9 9 9 9 9 9 9 9 9 9 9 9 9 9 9 9 9 9 9 9 9 9 9 9 9 9 9 9 9 9 9 9 9 9 9 9 9 9 9 9 9 9 9 9 9 9 9 9 9 9 9 9 9 9 9 9 9 9 9 9 9 9 9 9 9 9 9 9 9 9 9 9 9 9 9 9 9 9 9 9 9 9 9 9 9 9 9 9 9 9 9 9 9 9 9 9 9 9 9 9 9 9 9 9 9 9 9 9 9 9 9 9 9 9 9 9 9 9 9 9 9 9 9 9 9 9 9 9 9 9 9 9 9 9 9 9 9 9 9 9 9 9 9 9 9 9 9 9 9 9 9 9 9 9 9 9 9 9 9 9 9 9 9 9 9 9 9 9 9 9 9 9 9 9 9 9 9 9 9 9 9 9 9 9 9 9 9 9 9 9 9 9 9 9 9 9 9 9 9 9 9 9 9 9 9 9 9 9 9 9 9 9 9 9 9 9 9 9 9 9 9 9 9 9 9 9 9 9 9 9 9 9 9 9 9 9 9 9 9 9 9 9 9 9 9 9 9 9 9 9 9 9 9 9 9 9 9 9 9 9 9 9 9 9 9 9 9 9 9 9 9 9 9 9 9 9 9 9 9 9 9 9 9 9 9 9 9 9 9 9 9 9 9 9 9 9 9 9 9 9 9 9 9 9 9 9 9 9 9 9 9 9 9 9 9 9 9 9 9 9 9 9 9 9 9 9 9 9 9 9 9 9 9 9 9 9 9 9 9 9 9 9 9 9 9 9 9 9 9 9 9 9 9 9 9 9 9 9 9 9 9 9 9 9 9 9 9 9 9 9 9 9 9 9 9 9 9 9 9 9 9 9 9 9 9 9 9 9 9 9 9 9 9 9 9 9 9 9 9 9 9 9 9 9 9 9 9 9 9 9 9 9 9 9 9 9 9 9 9 9 9 9 9 9 9 9 9 9 9 9 9 9 9 9 9 9 9 9 9 9 9 9 9 9 9 9 9 9 9 9 9 9 9 9 9 9 9 9 9 9 9 9 9 9 9 9 9 9 9 9 9 9 9 9 9 9 9 9 9 9 9 9 9 9 9 9 9 9 9 9 9 9 9 9 9 9 9 9 9 9 9 9 9 9 9 9 9 9 9 9 9 9 9 9 9 9 9 9 9 9 9 9 9 9 9 9 9 9 9 9 9 9 9 9 9 9 9 9 9 9 9 9 9 9 9 9 9 9 9 9 9 9 9 9 9 9 9 9 9 9 9 9 9 9 9 9 9 9 9 9 9 9 9 9 9 9 9 9 9 9 9 9 9 9 9 9 9 9 9 9 9 9 9 9 9 9 9 9 9 9 9 9 9 9 9 9 9 9 9 9 9 9 9 9 9 9 9 9 9 9 9 9 9 9 9 9 9 9 9 9 9 9 9 9 9 9 9 9 9 9 9 9 9 9 9 9 9 9 9 9 9 9 9 9 9 9 9 9 9 9 9 9 9 9 9 9 9 9 9 9 9 9 9 9 9 9 9 9 9 9 9 9 9 9 9 9 9 9 9 9 9 9 9 9 9 9 9 9 9 9 9 9 9 9 9 9 9 9 9 9 9 9 9 9 9 9 9 9 9 9 9 9 9 9 9 9 9 9 9 9 9 9 9 9 9 9 9 9 9 9 9 9 9 9 9 9 9 9 9 9 9 9 9 9 9 9 9 9 9 9 9 9 9 9 9 9 9 9 9 9 9 9 9 9 9 9 9 9 9 9 9 9 9 9 9 9 9 9 9 9 9 9 9 9 9 9 9 9 9 9 9 9 9 9 9 9 9 9 9 9 9 9 9 9 9 9 9 9 9 9 9 9 9 9 9 9 9 9 9 9 9 9 9 9 9 9 9 9 9 9 9 9 9 9 9 9 9 9 9 9 9 9 9 9 9 9 9 9 9 9 9 9 9 9 9 9 9 9 9 9 9 9 9 9 9 9 9 9 9 9 9 9 9 9 9 9 9 9 9 9 9 9 9 9 9 9 9 9 9 9 9 9 9 9 9 9 9 9 9 9 9 9 9 9 9 9 9 9 9 9 9 9 9 9 9 9 9 9 9 9 9 9 9 9 9 9 9 9 9 9 9 9 9 9 9 9 9 9 9 9 9 9 9 9 9 9 9 9 9 9 9 9 9 9 9 9 9 9 9 9 9 9 9 9 9 9 9 9 9 9 9 9 9 9 9 9 9 9 9 9 9 9 9 9 9 9 9 9 9 9 9 9 9 9 9 9 9 9 9 9 9 9 9 9 9 9 9 9 9 9 9 9 9 9 9 9 9 9 9 9 9 9 9 9 9 9 9 9 9 9 9 9 9 9 9 9 9 9 9 9 9 9 9 9 9 9 9 9 9 9 9 9 9 9 9 9 9 9 9 9 9 9 9 9 9 9 9 9 9 9 9 9 9 9 9 9 9 9 9 9 9 9 9 9 9 9 9 9 9 9 9 9 9 9 9 9 9 9 9 9 9 9 9 9 9 9 9 9 9 9 9 9 9 9 9 9 9 9 9 9 9 9 9 9 9 9 9 9 9 9 9 9 9 9 9 9 9 9 9 9 9 9 9 9 9 9 9 9 9 9 9 9 9 9 9 9 9 9 9 9 9 9 9 9 9 9 9 9 9 9 9 9 9 9 9 9 9 9 9 9 9 9 9 9 9 9 9 9 9 9 9 9 9 9 9 9 9 9 9 9 9 9 9 9 9 9 9 9 9 9 9 9 9 9 9 9 9 9 9 9 9 9 9 9 9 9 9 9 9 9 9 9 9 9 9 9 9 9 9 9 9 9 9 9 9 9 9 9 9 9 9 9 9 9 9 9 9 9 9 9 9 9 9 9 9 9 9 9 9 9 9 9 9 9 9 9 9 9 9 9 9 9 9 9 9 9 9 9 9 9 9 9 9 9 9 9 9 9 9 9 9 9 9 9 9 9 9 9 9 9 9 9 9 9 9 9 9 9 9 9 9 9 9 9 9 9 9 9 9 9 9 9 9 9 9 9 9 9 9 9 9 9 9 9 9 9 9 9 9 9 9 9 9 9 9 9 9 9 9 9 9 9 9 9 9 9 9 9 9 9 9 9 9 9 9 9 9 9 9 9 9 9 9 9 9 9 9 9 9 9 9 9 9 9 9 9 9 9 9 9 9 9 9 9 9 9 9 9 9 9 9 9 9 9 9 9 9 9 9 9 9 9 9 9 9 9 9 9 9 9 9 9 9 9 9 9 9 9 9 9 9 9 9 9 9 9 9 9 9 9 9 9 9 9 9 9 9 9 9 9 9 9 9 9 9 9 9 9 9 9 9 9 9 9 9 9 9 9 9 9 9 9 9 9 9 9 9 9 9 9 9 9 9 9 9 9 9 9 9 9 9 9 9 9 9 9 9 9 9 9 9 9 9 9 9 9 9 9 9 9 9 9 9 9 9 9 9 9 9 9 9 9 9 9 9 9 9 9 9 9 9 9 9 9 9 9 9 9 9 9 9 9 9 9 9 9 9 9 9 9 9 9 9 9 9 9 9 9 9 9 9 9 9 9 9 9 9 9 9 9 9 9 9 9 9 9 9 9 9 9 9 9 9 9 9 9 9 9 9 9 9 9 9 9 9 9 9 9 9 9 9 9 9 9 9 9 9 9 9 9 9 9 9 9 9 9 9 9 9 9 9 9 9 9 9 9 9 9 9 9 9 9 9 9 9 9 9 9 9 9 9 9 9 9 9 9 9 9 9 9 9 9 9 9 9 9 9 9 9 9 9 9 9 9 9 9 9 9 9 9 9 9 9 9 9 9 9 9 9 9 9 9 9 9 9 9 9 9 9 9 9 9 9 9 9 9 9 9 9 9 9 9 9 9 9 9 9 9 9 9 9 9 9 9 9 9 9 9 9 9 9 9 9 9 9 9 9 9 9 9 9 9 9 9 9 9 9 9 9 9 9 9 9 9 9 9 9 9 9 9 9 9 9 9 9 9 9 9 9 9 9 9 9 9 9 9 9 9 9 9 9 9 9 9 9 9 9 9 9 9 9 9 9 9 9 9 9 9 9 9 9 9 9 9 9 9 9 9 9 9 9 9 9 9 9 9 9 9 9 9 9 9 9 9 9 9 9 9 9 9 9 9 9 9 9 9 9 9 9 9 9 9 9 9 9 9 9 9 9 9 9 9 9 9 9 9 9 9 9 9 9 9 9 9 9 9 9 9 9 9 9 9 9 9 9 9 9 9 9 9 9 9 9 9 9 9 9 9 9 9 9 9 9 9 9 9 9 9 9 9 9 9 9 9 9 9 9 9 9 9 9 9 9 9 9 9 9 9 9 9 9 9 9 9 9 9 9 9 9 9 9 9 9 9 9 9 9 9 9 9 9 9 9 9 9 9 9 9 9 9 9 9 9 9 9 9 9 9 9 9 9 9 9 9 9 9 9 9 9 9 9 9 9 9 9 9 9 9 9 9 9 9 9 9 9 9 9 9 9 9 9 9 9 9 9 9 9 9 9 9 9 9 9 9 9 9 9 9 9 9 9 9 9 9 9 9 9 9 9 9 9 9 9 9 9 9 9 9 9 9 9 9 9 9 9 9 9 9 9 9 9 9 9 9 9 9 9 9 9 9 9 9 9 9 9 9 9 9 9 9 9 9 9 9 9 9 9 9 9 9 9 9 9 9 9 9 9 9 9 9 9 9 9 9 9 9 9 9 9 9 9 9 9 9 9 9 9 9 9 9 9 9 9 9 9 9 9 9 9 9 9 9 9 9 9 9 9 9 9 9 9 9 9 9 9 9 9 9 9 9 9 9 9 9 9 9 9 9 9 9 9 9 9 9 9 9 9 9 9 9 9 9 9 9 9 9 9 9 9 9 9 9 9 9 9 9 9 9 9 9 9 9 9 9 9 9 9 9 9 9 9 9 9 9 9 9 9 9 9 9 9 9 9 9 9 9 9 9 9 9 9 9 9 9 9 9 9 9 9 9 9 9 9 9 9 9 9 9 9 9 9 9 9 9 9 9 9 9 9 9 9 9 9 9 9 9 9 9 9 9 9 9 9 9 9 9 9 9 9 9 9 9 9 9 9 9 9 9 9 9 9 9 9 9 9 9 9 9 9 9 9 9 9 9 9 9 9 9 9 9 9 9 9 9 9 9 9 9 9 9 9 9 9 9 9 9 9 9 9 9 9 9 9 9 9 9 9 9 9 9 9 9 9 9 9 9 9 9 9 9 9 9 9 9 9 9 9 9 9 9 9 9 9 9 9 9 9 9 9 9 9 9 9 9 9 9 9 9 9 9 9 9 9 9 9 9 9 9 9 9 9 9 9 9 9 9 9 9 9 9 9 9 9 9 9 9 9 9 9 9 9 9 9 9 9 9 9 9 9 9 9 9 9 9 9 9 9 9 9 9 9 9 9 9 9 9 9 9 9 9 9 9 9 9 9 9 9 9 9 9 9 9 9 9 9 9 9 9 9 9 9 9 9 9 9 9 9 9 9 9 9 9 9 9 9 9 9 9 9 9 9 9 9 9 9 9 9 9 9 9 9 9 9 9 9 9 9 9 9 9 9 9 9 9 9 9 9 9 9 9 9 9 9 9 9 9 9 9 9 9 9 9 9 9 9 9 9 9 9 9 9 9 9 9 9 9 9 9 9 9 9 9 9 9 9 9 9 9 9 9 9 9 9 9 9 9 9 9 9 9 9 9 9 9 9 9 9 9 9 9 9 9 9 9 9 9 9 9 9 9 9 9 9 9 9 9 9 9 9 9 9 9 9 9 9 9 9 9 9 9 9 9 9 9 9 9 9 9 9 9 9 9 9 9 9 9 9 9 9 9 9 9 9 9 9 9 9 9 9 9 9 9 9 9 9 9 9 9 9 9 9 9 9 9 9 9 9 9 9 9 9 9 9 9 9 9 9 9 9 9 9 9 9 9 9 9 9 9 9 9 9 9 9 9 9 9 9 9 9 9 9 9 9 9 9 9 9 9 9 9 9 9 9 9 9 9 9 9 9 9 9 9 9 9 9 9 9 9 9 9 9 9 9 9 9 9 9 9 9 9 9 9 9 9 9 9 9 9 9 9 9 9 9 9 9 9 9 9 9 9 9 9 9 9 9 9 9 9 9 9 9 9 9 9 9 9 9 9 9 9 9 9 9 9 9 9 9 9 9 9 9 9 9 9 9 9 9 9 9 9 9 9 9 9 9 9 9 9 9 9 9 9 9 9 9 9 9 9 9 9 9 9 9 9 9 9 9 9 9 9 9 9 9 9 9 9 9 9 9 9 9 9 9 9 9 9 9 9 9 9 9 9 9 9 9 9 9 9 9 9 9 9 9 9 9 9 9 9 9 9 9 9 9 9 9 9 9 9 9 9 9 9 9 9 9 9 9 9 9 9 9 9 9 9 9 9 9 9 9 9 9 9 9 9 9 9 9 9 9 9 9 9 9 9 9 9 9 9 9 9 9 9 9 9 9 9 9 9 9 9 9 9 9 9 9 9 9 9 9 9 9 9 9 9 9 9 9 9 9 9 9 9 9 9 9 9 9 9 9 9 9 9 9 9 9 9 9 9 9 9 9 9 9 9 9 9 9 9 9 9 9 9 9 9 9 9 9 9 9 9 9 9 9 9 9 9 9 9 9 9 9 9 9 9 9 9 9 9 9 9 9 9 9 9 9 9 9 9 9 9 9 9 9 9 9 9 9 9 9 9 9 9 9 9 9 9 9 9 9 9 9 9 9 9 9 9 9 9 9 9 9 9 9 9 9 9 9 9 9 9 9 9 9 9 9 9 9 9 9 9 9 9 9 9 9 9 9 9 9 9 9 9 9 9 9 9 9 9 9 9 9 9 9 9 9 9 9 9 9 9 9 9 9 9 9 9 9 9 9 9 9 9 9 9 9 9 9 9 9 9 9 9 9 9 9 9 9 9 9 9 9 9 9 9 9 9 9 9 9 9 9 9 9 9 9 9 9 9 9 9 9 9 9 9 9 9 9 9 9 9 9 9 9 9 9 9 9 9 9 9 9 9 9 9 9 9 9 9 9 9 9 9 9 9 9 9 9 9 9 9 9 9 9 9 9 9 9 9 9 9 9 9 9 9 9 9 9 9 9 9 9 9 9 9 9 9 9 9 9 9 9 9 9 9 9 9 9 9 9 9 9 9 9 9 9 9 9 9 9 9 9 9 9 9 9 9 9 9 9 9 9 9 9 9 9 9 9 9 9 9 9 9 9 9 9 9 9 9 9 9 9 9 9 9 9 9 9 9 9 9 9 9 9 9 9 9 9 9 9 9 9 9 9 9 9 9 9 9 9 9 9 9 9 9 9 9 9 9 9 9 9 9 9 9 9 9 9 9 9 9 9 9 9 9 9 9 9 9 9 9 9 9 9 9 9 9 9 9 9 9 9 9 9 9 9 9 9 9 9 9 9 9 9 9 9 9 9 9 9 9 9 9 9 9 9 9 9 9 9 9 9 9 9 9 9 9 9 9 9 9 9 9 9 9 9 9 9 9 9 9 9 9 9 9 9 9 9 9 9 9 9 9 9 9 9 9 9 9 9 9 9 9 9 9 9 9 9 9 9 9 9 9 9 9 9 9 9 9 9 9 9 9 9 9 9 9 9 9 9 9 9 9 9 9 9 9 9 9 9 9 9 9 9 9 9 9 9 9 9 9 9 9 9 9 9 9 9 9 9 9 9 9 9 9 9 9 9 9 9 9 9 9 9 9 9 9 9 9 9 9 9 9 9 9 9 9 9 9 9 9 9 9 9 9 9 9 9 9 9 9 9 9 9 9 9 9 9 9 9 9 9 9 9 9 9 9 9 9 9 9 9 9 9 9 9 9 9 9 9 9 9 9 9 9 9 9 9 9 9 9 9 9 9 9 9 9 9 9 9 9 9 9 9 9 9 9 9 9 9 9 9 9 9 9 9 9 9 9 9 9 9 9 9 9 9 9 9 9 9 9 9 9 9 9 9 9 9 9 9 9 9 9 9 9 9 9 9 9 9 9 9 9 9 9 9 9 9 9 9 9 9 9 9 9 9 9 9 9 9 9 9 9 9 9 9 9 9 9 9 9 9 9 9 9 9 9 9 9 9 9 9 9 9 9 9 9 9 9 9 9 9 9 9 9 9 9 9 9 9 9 9 9 9 9 9 9 9 9 9 9 9 9 9 9 9 9 9 9 9 9 9 9 9 9 9 9 9 9 9 9 9 9 9 9 9 9 9 9 9 9 9 9 9 9 9 9 9 9 9 9 9 9 9 9 9 9 9 9 9 9 9 9 9 9 9 9 9 9 9 9 9 9 9 9 9 9 9 9 9 9 9 9 9 9 9 9 9 9 9 9 9 9 9 9 9 9 9 9 9 9 9 9 9 9 9 9 9 9 9 9 9 9 9 9 9 9 9 9 9 9 9 9 9 9 9 9 9 9 9 9 9 9 9 9 9 9 9 9 9 9 9 9 9 9 9 9 9 9 9 9 9 9 9 9 9 9 9 9 9 9 9 9 9 9 9 9 9 9 9 9 9 9 9 9 9 9 9 9 9 9 9 9 9 9 9 9 9 9 9 9 9 9 9 9 9 9 9 9 9 9 9 9 9 9 9 9 9 9 9 9 9 9 9 9 9 9 9 9 9 9 9 9 9 9 9 9 9 9 9 9 9 9 9 9 9 9 9 9 9 9 9 9 9 9 9 9 9 9 9 9 9 9 9 9 9 9 9 9 9 9 9 9 9 9 9 9 9 9 9 9 9 9 9 9 9 9 9 9 9 9 9 9 9 9 9 9 9 9 9 9 9 9 9 9 9 9 9 9 9 9 9 9 9 9 9 9 9 9 9 9 9 9 9 9 9 9 9 9 9 9 9 9 9 9 9 9 9 9 9 9 9 9 9 9 9 9 9 9 9 9 9 9 9 9 9 9 9 9 9 9 9 9 9 9 9 9 9 9 9 9 9 9 9 9 9 9 9 9 9 9 9 9 9 9 9 9 9 9 9 9 9 9 9 9 9 9 9 9 9 9 9 9 9 9 9 9 9 9 9 9 9 9 9 9 9 9 9 9 9 9 9 9 9 9 9 9 9 9 9 9 9 9 9 9 9 9 9 9 9 9 9 9 9 9 9 9 9 9 9 9 9 9 9 9 9 9 9 9 9 9 9 9 9 9 9 9 9 9 9 9 9 9 9 9 9 9 9 9 9 9 9 9 9 9 9 9 9 9 9 9 9 9 9 9 9 9 9 9 9 9 9 9 9 9 9 9 9 9 9 9 9 9 9 9 9 9 9 9 9 9 9 9 9 9 9 9 9 9 9 9 9 9 9 9 9 9 9 9 9 9 9 9 9 9 9 9 9 9 9 9 9 9 9 9 9 9 9 9 9 9 9 9 9 9 9 9 9 9 9 9 9 9 9 9 9 9 9 9 9 9 9 9 9 9 9 9 9 9 9 9 9 9 9 9 9 9 9 9 9 9 9 9 9 9 9 9 9 9 9 9 9 9 9 9 9 9 9 9 9 9 9 9 9 9 9 9 9 9 9 9 9 9 9 9 9 9 9 9 9 9 9 9 9 9 9 9 9 9 9 9 9 9 9 9 9 9 9 9 9 9 9 9 9 9 9 9 9 9 9 9 9 9 9 9 9 9 9 9 9 9 9 9 9 9 9 9 9 9 9 9 9 9 9 9 9 9 9 9 9 9 9 9 9 9 9 9 9 9 9 9 9 9 9 9 9 9 9 9 9 9 9 9 9 9 9 9 9 9 9 9 9 9 9 9 9 9 9 9 9 9 9 9 9 9 9 9 9 9 9 9 9 9 9 9 9 9 9 9 9 9 9 9 9 9 9 9 9 9 9 9 9 9 9 9 9 9 9 9 9 9 9 9 9 9 9 9 9 9 9 9 9 9 9 9 9 9 9 9 9 9 9 9 9 9 9 9 9 9 9 9 9 9 9 9 9 9 9 9 9 9 9 9 9 9 9 9 9 9 9 9 9 9 9 9 9 9 9 9 9 9 9 9 9 9 9 9 9 9 9 9 9 9 9 9 9 9 9 9 9 9 9 9 9 9 9 9 9 9 9 9 9 9 9 9 9 9 9 9 9 9 9 9 9 9 9 9 9 9 9 9 9 9 9 9 9 9 9 9 9 9 9 9 9 9 9 9 9 9 9 9 9 9 9 9 9 9 9 9 9 9 9 9 9 9 9 9 9 9 9 9 9 9 9 9 9 9 9 9 9 9 9 9 9 9 9 9 9 9 9 9 9 9 9 9 9 9 9 9 9 9 9 9 9 9 9 9 9 9 9 9 9 9 9 9 9 9 9 9 9 9 9 9 9 9 9 9 9 9 9 9 9 9 9 9 9 9 9 9 9 9 9 9 9 9 9 9 9 9 9 9 9 9 9 9 9 9 9 9 9 9 9 9 9 9 9 9 9 9 9 9 9 9 9 9 9 9 9 9 9 9 9 9 9 9 9 9 9 9 9 9 9 9 9 9 9 9 9 9 9 9 9 9 9 9 9 9 9 9 9 9 9 9 9 9 9 9 9 9 9 9 9 9 9 9 9 9 9 9 9 9 9 9 9 9 9 9 9 9 9 9 9 9 9 9 9 9 9 9 9 9 9 9 9 9 9 9 9 9 9 9 9 9 9 9 9 9 9 9 9 9 9 9 9 9 9 9 9 9 9 9 9 9 9 9 9 9 9 9 9 9 9 9 9 9 9 9 9 9 9 9 9 9 9 9 9 9 9 9 9 9 9 9 9 9 9 9 9 9 9 9 9 9 9 9 9 9 9 9 9 9 9 9 9 9 9 9 9 9 9 9 9 9 9 9 9 9 9 9 9 9 9 9 9 9 9 9 9 9 9 9 9 9 9 9 9 9 9 9 9 9 9 9 9 9 9 9 9 9 9 9 9 9 9 9 9 9 9 9 9 9 9 9 9 9 9 9 9 9 9 9 9 9 9 9 9 9 9 9 9 9 9 9 9 9 9 9 9 9 9 9 9 9 9 9 9 9 9 9 9 9 9 9 9 9 9 9 9 9 9 9 9 9 9 9 9 9 9 9 9 9 9 9 9 9 9 9 9 9 9 9 9 9 9 9 9 9 9 9 9 9 9 9 9 9 9 9 9 9 9 9 9 9 9 9 9 9 9 9 9 9 9 9 9 9 9 9 9 9 9 9 9 9 9 9 9 9 9 9 9 9 9 9 9 9 9 9 9 9 9 9 9 9 9 9 9 9 9 9 9 9 9 9 9 9 9 9 9 9 9 9 9 9 9 9 9 9 9 9 9 9 9 9 9 9 9 9 9 9 9 9 9 9 9 9 9 9 9 9 9 9 9 9 9 9 9 9 9 9 9 9 9 9 9 9 9 9 9 9 9 9 9 9 9 9 9 9 9 9 9 9 9 9 9 9 9 9 9 9 9 9 9 9 9 9 9 9 9 9 9 9 9 9 9 9 9 9 9 9 9 9 9 9 9 9 9 9 9 9 9 9 9 9 9 9 9 9 9 9 9 9 9 9 9 9 9 9 9 9 9 9 9 9 9 9 9 9 9 9 9 9 9 9 9 9 9 9 9 9 9 9 9 9 9 9 9 9 9 9 9 9 9 9 9 9 9 9 9 9 9 9 9 9 9 9 9 9 9 9 9 9 9 9 9 9 9 9 9 9 9 9 9 9 9 9 9 9 9 9 9 9 9 9 9 9 9 9 9 9 9 9 9 9 9 9 9 9 9 9 9 9 9 9 9 9 9 9 9 9 9 9 9 9 9 9 9 9 9 9 9 9 9 9 9 9 9 9 9 9 9 9 9 9 9 9 9 9 9 9 9 9 9 9 9 9 9 9 9 9 9 9 9 9 9 9 9 9 9 9 9 9 9 9 9 9 9 9 9 9 9 9 9 9 9 9 9 9 9 9 9 9 9 9 9 9 9 9 9 9 9 9 9 9 9 9 9 9 9 9 9 9 9 9 9 9 9 9 9 9 9 9 9 9 9 9 9 9 9 9 9 9 9 9 9 9 9 9 9 9 9 9 9 9 9 9 9 9 9 9 9 9 9 9 9 9 9 9 9 9 9 9 9 9 9 9 9 9 9 9 9 9 9 9 9 9 9 9 9 9 9 9 9 9 9 9 9 9 9 9 9 9 9 9 9 9 9 9 9 9 9 9 9 9 9 9 9 9 9 9 9 9 9 9 9 9 9 9 9 9 9 9 9 9 9 9 9 9 9 9 9 9 9 9 9 9 9 9 9 9 9 9 9 9 9 9 9 9 9 9 9 9 9 9 9 9 9 9 9 9 9 9 9 9 9 9 9 9 9 9 9 9 9 9 9 9 9 9 9 9 9 9 9 9 9 9 9 9 9 9 9 9 9 9 9 9 9 9 9 9 9 9 9 9 9 9 9 9 9 9 9 9 9 9 9 9 9 9 9 9 9 9 9 9 9 9 9 9 9 9 9 9 9 9 9 9 9 9 9 9 9 9 9 9 9 9 9 9 9 9 9 9 9 9 9 9 9 9 9 9 9 9 9 9 9 9 9 9 9 9 9 9 9 9 9 9 9 9 9 9 9 9 9 9 9 9 9 9 9 9 9 9 9 9 9 9 9 9 9 9 9 9 9 9 9 9 9 9 9 9 9 9 9 9 9 9 9 9 9 9 9 9 9 9 9 9 9 9 9 9 9 9 9 9 9 9 9 9 9 9 9 9 9 9 9 9 9 9 9 9 9 9 9 9 9 9 9 9 9 9 9 9 9 9 9 9 9 9 9 9 9 9 9 9 9 9 9 9 9 9 9 9 9 9 9 9 9 9 9 9 9 9 9 9 9 9 9 9 9 9 9 9 9 9 9 9 9 9 9 9 9 9 9 9 9 9 9 9 9 9 9 9 9 9 9 9 9 9 9 9 9 9 9 9 9 9 9 9 9 9 9 9 9 9 9 9 9 9 9 9 9 9 9 9 9 9 9 9 9 9 9 9 9 9 9 9 9 9 9 9 9 9 9 9 9 9 9 9 9 9 9 9 9 9 9 9 9 9 9 9 9 9 9 9 9 9 9 9 9 9 9 9 9 9 9 9 9 9 9 9 9 9 9 9 9 9 9 9 9 9 9 9 9 9 9 9 9 9 9 9 9 9 9 9 9 9 9 9 9 9 9 9 9 9 9 9 9 9 9 9 9 9 9 9 9 9 9 9 9 9 9 9 9 9 9 9 9 9 9 9 9 9 9 9 9 9 9 9 9 9 9 9 9 9 9 9 9 9 9 9 9 9 9 9 9 9 9 9 9 9 9 9 9 9 9 9 9 9 9 9 9 9 9 9 9 9 9 9 9 9 9 9 9 9 9 9 9 9 9 9 9 9 9 9 9 9 9 9 9 9 9 9 9 9 9 9 9 9 9 9 9 9 9 9 9 9 9 9 9 9 9 9 9 9 9 9 9 9 9 9 9 9 9 9 9 9 9 9 9 9 9 9 9 9 9 9 9 9 9 9 9 9 9 9 9 9 9 9 9 9 9 9 9 9 9 9 9 9 9 9 9 9 9 9 9 9 9 9 9 9 9 9 9 9 9 9 9 9 9 9 9 9 9 9 9 9 9 9 9 9 9 9 9 9 9 9 9 9 9 9 9 9 9 9 9 9 9 9 9 9 9 9 9 9 9 9 9 9 9 9 9 9 9 9 9 9 9 9 9 9 9 9 9 9 9 9 9 9 9 9 9 9 9 9 9 9 9 9 9 9 9 9 9 9 9 9 9 9 9 9 9 9 9 9 9 9 9 9 9 9 9 9 9 9 9 9 9 9 9 9 9 9 9 9 9 9 9 9 9 9 9 9 9 9 9 9 9 9 9 9 9 9 9 9 9 9 9 9 9 9 9 9 9 9 9 9 9 9 9 9 9 9 9 9 9 9 9 9 9 9 9 9 9 9 9 9 9 9 9 9 9 9 9 9 9 9 9 9 9 9 9 9 9 9 9 9 9 9 9 9 9 9 9 9 9 9 9 9 9 9 9 9 9 9 9 9 9 9 9 9 9 9 9 9 9 9 9 9 9 9 9 9 9 9 9 9 9 9 9 9 9 9 9 9 9 9 9 9 9 9 9 9 9 9 9 9 9 9 9 9 9 9 9 9 9 9 9 9 9 9 9 9 9 9 9 9 9 9 9 9 9 9 9 9 9 9 9 9 9 9 9 9 9 9 9 9 9 9 9 9 9 9 9 9 9 9 9 9 9 9 9 9 9 9 9 9 9 9 9 9 9 9 9 9 9 9 9 9 9 9 9 9 9 9 9 9 9 9 9 9 9 9 9 9 9 9 9 9 9 9 9 9 9 9 9 9 9 9 9 9 9 9 9 9 9 9 9 9 9 9 9 9 9 9 9 9 9 9 9 9 9 9 9 9 9 9 9 9 9 9 9 9 9 9 9 9 9 9 9 9 9 9 9 9 9 9 9 9 9 9 9 9 9 9 9 9 9 9 9 9 9 9 9 9 9 9 9 9 9 9 9 9 9 9 9 9 9 9 9 9 9 9 9 9 9 9 9 9 9 9 9 9 9 9 9 9 9 9 9 9 9 9 9 9 9 9 9 9 9 9 9 9 9 9 9 9 9 9 9 9 9 9 9 9 9 9 9 9 9 9 9 9 9 9 9 9 9 9 9 9 9 9 9 9 9 9 9 9 9 9 9 9 9 9 9 9 9 9 9 9 9 9 9 9 9 9 9 9 9 9 9 9 9 9 9 9 9 9 9 9 9 9 9 9 9 9 9 9 9 9 9 9 9 9 9 9 9 9 9 9 9 9 9 9 9 9 9 9 9 9 9 9 9 9 9 9 9 9 9 9 9 9 9 9 9 9 9 9 9 9 9 9 9 9 9 9 9 9 9 9 9 9 9 9 9 9 9 9 9 9 9 9 9 9 9 9 9 9 9 9 9 9 9 9 9 9 9 9 9 9 9 9 9 9 9 9 9 9 9 9 9 9 9 9 9 9 9 9 9 9 9 9 9 9 9 9 9 9 9 9 9 9 9 9 9 9 9 9 9 9 9 9 9 9 9 9 9 9 9 9 9 9 9 9 9 9 9 9 9 9 9 9 9 9 9 9 9 9 9 9 9 9 9 9 9 9 9 9 9 9 9 9 9 9 9 9 9 9 9 9 9 9 9 9 9 9 9 9 9 9 9 9 9 9 9 9 9 9 9 9 9 9 9 9 9 9 9 9 9 9 9 9 9 9 9 9 9 9 9 9 9 9 9 9 9 9 9 9 9 9 9 9 9 9 9 9 9 9 9 9 9 9 9 9 9 9 9 9 9 9 9 9 9 9 9 9 9 9 9 9 9 9 9 9 9 9 9 9 9 9 9 9 9 9 9 9 9 9 9 9 9 9 9 9 9 9 9 9 9 9 
</DataArray>
</Cells> 
</Piece> 
</UnstructuredGrid> 
</VTKFile> 
