<?xml version="1.0"?> 
<VTKFile type="UnstructuredGrid" version="0.1"> 
<UnstructuredGrid> 
<Piece NumberOfPoints="2800" NumberOfCells="1792"> 
<PointData Vectors="fields">
<DataArray type="Float32" Name="stress" format="ascii" NumberOfComponents="3"> 
109.89 2.86137e-08 -1.28962e-10 109.89 -1.65175e-08 1.16867e-08 109.89 2.29305e-08 1.387e-08 109.89 -2.90955e-09 2.11864e-08 109.89 1.21635e-08 2.39443e-08 109.89 -1.73868e-08 6.77491e-09 109.89 7.08659e-09 2.58129e-08 109.89 -1.18206e-08 1.21509e-08 109.89 8.45605e-09 2.47367e-08 109.89 2.73126e-10 1.96329e-08 109.89 3.49242e-08 5.18827e-10 109.89 -2.03639e-08 9.47056e-10 109.89 2.76465e-08 9.4874e-09 109.89 -8.52368e-09 9.31143e-09 109.89 1.07392e-08 1.41024e-08 109.89 -1.83509e-08 7.06576e-10 109.89 7.15335e-09 5.56114e-10 109.89 -1.49825e-08 -3.63702e-09 109.89 -5.23752e-10 -3.55394e-09 109.89 -8.9226e-09 -5.89102e-09 109.89 9.76947e-09 -8.55963e-10 109.89 -7.67115e-09 -9.00102e-09 109.89 6.819e-09 -2.54326e-09 109.89 -8.45223e-09 -7.99111e-09 109.89 -1.89836e-09 -5.47233e-09 109.89 -1.39778e-08 -9.36578e-09 109.89 -1.14396e-08 -3.87554e-08 109.89 -1.97911e-08 -5.61554e-08 109.89 -1.81586e-08 -7.44576e-08 109.89 -2.23493e-08 -8.79526e-08 109.89 -2.91406e-08 5.48407e-09 109.89 4.51952e-08 1.23019e-08 109.89 7.29435e-10 1.45164e-08 109.89 5.98701e-08 2.08126e-08 109.89 4.2611e-08 2.25011e-08 109.89 -4.89448e-08 -1.1721e-08 109.89 1.09886e-08 -3.4392e-08 109.89 -4.23181e-08 -5.41969e-08 109.89 1.75911e-09 -6.75864e-08 109.89 -2.09746e-08 -8.17448e-08 109.89 -5.20607e-08 -3.93536e-10 109.89 4.68246e-08 7.17299e-10 109.89 -2.21327e-08 -5.35357e-09 109.89 5.37243e-08 -2.51516e-09 109.89 2.59248e-08 -6.2434e-09 109.89 -6.61754e-08 -8.27682e-09 109.89 3.54516e-08 -1.88565e-08 109.89 -4.45074e-08 -3.46767e-08 109.89 3.14931e-08 -3.96337e-08 109.89 -1.66239e-09 -5.02306e-08 109.89 -1.66368e-08 -1.72257e-09 109.89 1.02512e-08 5.93799e-09 109.89 -2.50358e-09 4.8595e-09 109.89 1.35287e-08 8.89656e-09 109.89 1.02634e-08 9.485e-09 109.89 -8.50697e-09 -1.36457e-08 109.89 1.23761e-08 6.41748e-10 109.89 2.61441e-09 -1.52281e-08 109.89 1.71997e-08 -4.12277e-09 109.89 1.42942e-08 -1.14015e-08 109.89 -8.13961e-09 -9.81444e-11 109.89 1.2978e-09 4.96663e-09 109.89 -2.09907e-09 5.73622e-09 109.89 2.22228e-09 7.82535e-09 109.89 1.94557e-09 9.15141e-09 109.89 6.77182e-09 -3.37557e-09 109.89 -7.85623e-09 -1.29715e-09 109.89 -1.76469e-09 -6.38115e-09 109.89 -1.05972e-08 -4.24808e-09 109.89 -9.26638e-09 -6.94177e-09 109.89 5.64862e-09 1.44683e-09 109.89 -1.10643e-08 1.09383e-09 109.89 -2.98517e-09 2.32735e-09 109.89 -1.46069e-08 1.53398e-09 109.89 -1.21452e-08 2.28665e-09 109.89 -2.52601e-08 -1.53494e-08 109.89 -1.20614e-08 -7.49765e-09 109.89 -3.20668e-08 -4.50236e-08 109.89 -2.08595e-08 -4.44624e-08 109.89 -3.05755e-08 -6.29006e-08 109.89 -6.64467e-08 1.89866e-08 109.89 5.46742e-08 -1.36461e-08 109.89 -5.40016e-08 1.41175e-08 109.89 3.94597e-08 -1.09888e-08 109.89 -6.10709e-09 1.04989e-09 109.89 -6.18981e-08 -1.01533e-08 109.89 -9.35283e-10 -7.90373e-09 109.89 -6.24078e-08 -3.78613e-08 109.89 -1.42624e-08 -4.10062e-08 109.89 -4.17522e-08 -5.61356e-08 109.89 -8.50161e-08 1.32162e-08 109.89 3.06732e-08 -1.27853e-08 109.89 -7.49253e-08 2.60775e-09 109.89 1.77966e-08 -1.79255e-08 109.89 -2.76509e-08 -1.19906e-08 109.89 -8.82887e-08 1.35486e-09 109.89 1.15856e-08 -1.01088e-08 109.89 -8.26646e-08 -1.89225e-08 109.89 -2.44288e-09 -3.0371e-08 109.89 -4.40779e-08 -3.59393e-08 109.89 9.71132e-08 4.0138e-09 109.89 2.16226e-08 -6.01369e-09 109.89 1.06229e-07 -4.54627e-09 109.89 6.09084e-08 -1.15155e-08 109.89 9.83346e-08 -1.15286e-08 109.89 -6.10443e-08 -1.2177e-08 109.89 -8.96512e-08 -5.3725e-08 109.89 -6.32698e-08 -4.44227e-08 109.89 -9.09247e-08 -7.77409e-08 109.89 -7.70446e-08 -7.59307e-08 109.89 8.95379e-08 -8.81634e-09 109.89 7.90803e-09 -4.6865e-09 109.89 1.0203e-07 -1.80317e-08 109.89 5.33425e-08 -1.5865e-08 109.89 9.50524e-08 -2.2542e-08 109.89 -1.94418e-08 -2.04439e-08 109.89 -6.36121e-08 -3.36087e-08 109.89 -1.37236e-08 -4.51724e-08 109.89 -4.74091e-08 -5.99735e-08 109.89 -2.3373e-08 -6.69906e-08 109.89 4.59788e-08 -2.03823e-08 109.89 -2.29866e-08 -1.2532e-08 109.89 5.91532e-08 -3.49807e-08 109.89 1.6648e-08 -3.18169e-08 109.89 5.34836e-08 -4.34522e-08 109.89 1.10317e-09 -3.53584e-09 109.89 1.28322e-08 -2.70287e-10 109.89 4.52539e-09 -4.24542e-09 109.89 1.22711e-08 -1.87876e-09 109.89 9.19034e-09 -3.69448e-09 109.89 -1.74435e-08 -9.826e-09 109.89 -1.27952e-08 -7.80531e-11 109.89 -2.03625e-08 -9.75735e-09 109.89 -1.5978e-08 -4.3668e-09 109.89 -1.98276e-08 -8.22638e-09 109.89 1.36934e-08 1.92334e-09 109.89 2.03466e-08 -3.67025e-09 109.89 1.77093e-08 4.0943e-10 109.89 2.16159e-08 -2.91031e-09 109.89 2.11145e-08 -1.45837e-09 109.89 -2.08381e-09 -1.04708e-09 109.89 -7.39604e-09 -2.85498e-09 109.89 -4.54507e-09 -2.79495e-09 109.89 -7.20588e-09 -4.29151e-09 109.89 -6.49689e-09 -4.42646e-09 109.89 1.33777e-08 4.30781e-09 109.89 9.79003e-09 -4.92204e-09 109.89 1.44099e-08 1.96207e-09 109.89 1.19673e-08 -3.85369e-09 109.89 1.40653e-08 -1.30392e-09 109.89 -3.36693e-09 -2.50032e-09 109.89 6.7077e-09 2.77216e-09 109.89 -6.48209e-09 -3.66882e-09 109.89 1.16499e-09 -4.36443e-11 109.89 -4.96914e-09 -2.92597e-09 109.89 1.1475e-08 -6.17773e-09 109.89 -9.46777e-09 5.18249e-09 109.89 2.1661e-08 -2.89775e-09 109.89 5.45855e-09 5.97701e-09 109.89 2.02576e-08 2.67922e-09 109.89 -6.6183e-09 -6.47697e-09 109.89 1.3271e-08 8.42506e-09 109.89 -5.87731e-09 -5.51804e-09 109.89 1.00493e-08 5.59685e-09 109.89 1.46838e-09 -4.40004e-10 109.89 2.82101e-09 -8.29193e-09 109.89 3.85389e-09 9.07646e-09 109.89 1.36634e-08 -3.82754e-09 109.89 1.52818e-08 9.77526e-09 109.89 2.0489e-08 4.42e-09 109.89 -5.14142e-09 -9.04366e-09 109.89 1.40125e-08 1.13635e-08 109.89 1.87486e-09 -5.4306e-09 109.89 1.77833e-08 1.02677e-08 109.89 1.27966e-08 3.14399e-09 109.89 -1.15085e-08 -3.76479e-09 109.89 4.54153e-09 -4.97315e-09 109.89 -6.81812e-09 -7.28907e-09 109.89 7.6204e-09 -8.07622e-09 109.89 2.50682e-09 -9.48837e-09 109.89 1.09522e-08 7.43509e-09 109.89 -6.97629e-09 1.5967e-09 109.89 3.65597e-09 1.48782e-08 109.89 -1.416e-08 1.04727e-08 109.89 -9.16082e-09 1.71425e-08 109.89 -3.45393e-08 -4.07676e-09 109.89 1.43883e-08 -9.33578e-09 109.89 -2.65284e-08 -6.16954e-09 109.89 1.06386e-08 -9.85584e-09 109.89 -6.79654e-09 -8.73233e-09 109.89 -2.36169e-08 3.34913e-09 109.89 9.1593e-09 -1.6661e-09 109.89 -2.27151e-08 1.13591e-08 109.89 -2.84141e-09 7.51202e-09 109.89 -1.5794e-08 1.41176e-08 109.89 -4.4861e-08 -1.57834e-09 109.89 1.89126e-08 -7.61994e-09 109.89 -3.72151e-08 1.90762e-09 109.89 7.86336e-09 -2.51733e-09 109.89 -1.56131e-08 2.02223e-09 109.89 -1.716e-08 -2.23549e-09 109.89 4.75608e-09 1.66148e-09 109.89 -1.94482e-08 -4.37421e-09 109.89 -2.20645e-09 -1.49588e-09 109.89 -1.33462e-08 -4.38575e-09 109.89 2.88811e-08 8.33194e-10 109.89 9.29069e-10 1.80389e-09 109.89 3.6468e-08 6.17898e-09 109.89 1.32244e-08 7.98676e-09 109.89 3.0118e-08 1.02805e-08 109.89 -3.03551e-08 -5.68941e-09 109.89 1.9336e-08 5.82942e-09 109.89 -2.49513e-08 -4.75155e-09 109.89 1.21818e-08 3.90183e-09 109.89 -6.81861e-09 -6.83016e-10 109.89 -1.36456e-09 -1.44635e-09 109.89 1.82967e-08 5.56952e-09 109.89 1.24103e-08 5.92731e-09 109.89 2.47741e-08 1.2273e-08 109.89 2.41039e-08 1.29907e-08 109.89 -2.778e-08 -5.17486e-09 109.89 2.7613e-08 7.90611e-09 109.89 -1.43387e-08 4.0504e-10 109.89 2.56729e-08 1.07789e-08 109.89 8.87138e-09 7.93539e-09 109.89 -1.3663e-09 4.09569e-09 109.89 1.21993e-09 2.94778e-08 109.89 -2.9247e-09 -1.84508e-08 109.89 -6.10282e-11 -1.05633e-09 109.89 -2.28952e-09 -2.42973e-08 109.89 -1.28287e-08 -1.21596e-09 109.89 -3.97574e-08 -1.17713e-08 109.89 1.67361e-08 6.17781e-09 109.89 8.04302e-09 1.01708e-10 109.89 3.35343e-08 8.41418e-09 109.89 -1.0058e-08 2.7809e-09 109.89 -1.09848e-08 2.56245e-08 109.89 -1.56196e-09 -1.6933e-08 109.89 4.5221e-09 -9.66547e-10 109.89 8.02852e-09 -2.16288e-08 109.89 -1.65356e-08 -7.19426e-10 109.89 -3.78178e-08 -2.75742e-09 109.89 1.22709e-08 -3.70414e-11 109.89 9.45096e-09 -1.21675e-10 109.89 3.16551e-08 8.35073e-10 109.89 -1.66686e-08 8.10049e-10 109.89 -2.71876e-08 1.28518e-08 109.89 4.51444e-09 -9.77254e-09 109.89 8.61357e-09 -5.81143e-10 109.89 2.21374e-08 -1.17444e-08 109.89 -9.95283e-10 2.87056e-10 109.89 -5.23407e-10 3.53144e-10 109.89 9.78583e-10 1.25811e-09 109.89 1.26473e-09 9.88493e-10 109.89 2.14773e-09 1.5609e-09 109.89 -1.59307e-09 -2.18122e-09 109.89 -4.96368e-09 3.79152e-10 109.89 3.60857e-09 -2.19193e-09 109.89 1.98664e-09 5.30008e-10 109.89 6.1146e-09 -7.89681e-10 109.89 -1.18593e-10 1.01407e-09 109.89 1.66566e-09 1.97746e-10 109.89 -6.49145e-10 1.68689e-09 109.89 1.69015e-10 8.54353e-10 109.89 -7.9395e-10 1.63249e-09 109.89 3.64571e-10 2.64282e-10 109.89 9.25665e-10 -1.86394e-10 109.89 -1.18147e-09 -4.18678e-10 109.89 -8.59803e-10 -1.48142e-10 109.89 -1.92959e-09 -4.57954e-10 109.89 8.8145e-10 1.49078e-09 109.89 3.46844e-09 -1.84633e-10 109.89 -2.63074e-09 1.23451e-09 109.89 -1.39505e-09 1.43786e-10 109.89 -4.29888e-09 7.0859e-10 109.89 -5.31622e-09 2.11907e-09 109.89 1.273e-08 -9.42273e-09 109.89 -6.95077e-09 -1.28379e-08 109.89 5.1524e-09 -2.47403e-08 109.89 -3.60714e-09 -2.70421e-08 109.89 -2.74286e-08 1.06992e-09 109.89 2.71004e-08 -9.58309e-09 109.89 -4.00176e-08 -8.58124e-10 109.89 5.09038e-09 -9.02068e-09 109.89 -2.67747e-08 -5.18012e-09 109.89 -1.74103e-08 3.31797e-09 109.89 3.00112e-08 -1.22571e-08 109.89 -1.94271e-08 -1.11637e-08 109.89 1.64204e-08 -2.57007e-08 109.89 -5.84689e-09 -2.60028e-08 109.89 -3.04523e-08 3.08717e-09 109.89 3.71593e-08 -1.33364e-08 109.89 -4.03402e-08 -2.83944e-09 109.89 1.40522e-08 -1.59216e-08 109.89 -2.20527e-08 -1.15704e-08 109.89 -2.80953e-08 4.09079e-09 109.89 4.11378e-08 -1.46056e-08 109.89 -3.34234e-08 -7.06658e-09 109.89 2.07817e-08 -2.29461e-08 109.89 -1.33029e-08 -2.02243e-08 109.89 1.55545e-08 -1.336e-08 109.89 4.23325e-09 1.63809e-09 109.89 2.48053e-08 -2.09702e-08 109.89 1.12944e-08 -1.13688e-08 109.89 2.2649e-08 -2.18047e-08 109.89 3.50992e-09 -1.19459e-08 109.89 -5.29837e-08 4.42368e-09 109.89 7.06416e-09 -2.62687e-08 109.89 -2.70581e-08 -1.79589e-08 109.89 -1.96781e-09 -3.20501e-08 109.89 1.33315e-08 -1.40999e-08 109.89 -3.04321e-09 -4.77983e-09 109.89 2.26933e-08 -2.42975e-08 109.89 7.15243e-09 -1.82933e-08 109.89 2.04034e-08 -2.77602e-08 109.89 5.79791e-09 -1.33045e-08 109.89 -4.52156e-08 -3.71104e-09 109.89 1.10077e-08 -2.75722e-08 109.89 -2.12735e-08 -2.26729e-08 109.89 2.86266e-09 -3.41302e-08 109.89 9.58517e-09 -1.4278e-08 109.89 -2.372e-08 -8.33263e-09 109.89 1.73751e-08 -2.72103e-08 109.89 -6.4412e-09 -2.37327e-08 109.89 1.24155e-08 -3.31717e-08 109.89 -4.23674e-09 -1.77144e-09 109.89 -6.36742e-09 3.21858e-09 109.89 -7.13329e-09 -9.83434e-10 109.89 -7.68978e-09 2.49678e-09 109.89 -8.5589e-09 7.75827e-10 109.89 -1.82905e-09 2.0857e-09 109.89 3.27865e-09 -5.14983e-09 109.89 -2.56593e-09 1.36617e-09 109.89 1.43126e-09 -3.4905e-09 109.89 -1.26013e-09 -8.09365e-10 109.89 -2.09981e-09 -9.52937e-10 109.89 -5.44176e-09 4.61082e-09 109.89 -3.89058e-09 -7.29727e-11 109.89 -6.04197e-09 3.59943e-09 109.89 -5.62125e-09 1.72955e-09 109.89 -1.89488e-10 9.31323e-10 109.89 4.58814e-09 2.63078e-10 109.89 3.8591e-10 4.66343e-10 109.89 3.22254e-09 -1.98071e-10 109.89 1.59011e-09 -1.1984e-10 109.89 -1.15961e-10 -1.01917e-10 109.89 1.94007e-10 4.28739e-09 109.89 -6.29825e-11 1.99638e-10 109.89 -4.63729e-10 2.8957e-09 109.89 -4.33914e-10 1.25174e-09 109.89 1.4447e-09 -5.47844e-09 109.89 1.70364e-08 -7.31566e-09 109.89 -8.48669e-09 4.55259e-09 109.89 -1.634e-09 2.58728e-09 109.89 -1.28674e-08 9.01034e-09 109.89 2.77985e-09 -2.96596e-11 109.89 2.09479e-09 -3.31854e-10 109.89 -8.51266e-10 -1.2276e-09 109.89 -1.79592e-09 -8.5654e-10 109.89 -3.37503e-09 -1.51225e-09 109.89 1.62323e-09 -5.33328e-09 109.89 1.95125e-08 -4.47485e-09 109.89 -1.03731e-08 2.20757e-09 109.89 -1.88355e-09 2.431e-09 109.89 -1.52415e-08 6.26071e-09 109.89 2.90784e-09 -1.37392e-09 109.89 7.811e-09 -6.33889e-10 109.89 -3.95782e-09 -9.7897e-10 109.89 -2.07651e-09 1.87835e-11 109.89 -7.58748e-09 -1.95028e-10 109.89 2.33889e-09 -3.69089e-09 109.89 1.59458e-08 -1.85761e-09 109.89 -8.56228e-09 4.0885e-11 109.89 -2.123e-09 1.42637e-09 109.89 -1.32472e-08 2.64659e-09 109.89 -2.0594e-08 -1.87172e-08 109.89 -3.08423e-09 2.71359e-08 109.89 -1.45335e-08 1.90016e-08 109.89 -7.93832e-09 4.52221e-08 109.89 -1.08479e-08 4.73507e-08 109.89 2.62801e-08 1.32118e-08 109.89 -1.39072e-08 -3.60305e-09 109.89 1.03047e-08 4.02606e-09 109.89 -1.60782e-08 -5.82357e-09 109.89 -7.8342e-09 -4.03013e-09 109.89 -1.87477e-08 -1.76013e-08 109.89 -8.46051e-09 2.26908e-08 109.89 -1.63272e-08 1.3541e-08 109.89 -1.56316e-08 3.63012e-08 109.89 -1.727e-08 3.70952e-08 109.89 1.83241e-08 6.21458e-09 109.89 -1.62206e-08 2.14295e-09 109.89 5.057e-09 5.72128e-09 109.89 -2.00722e-08 2.90835e-09 109.89 -1.21948e-08 4.34919e-09 109.89 -2.15774e-09 -7.41916e-09 109.89 -1.43988e-08 1.28112e-08 109.89 -7.74387e-09 8.56775e-09 109.89 -2.10411e-08 1.96092e-08 109.89 -1.77557e-08 2.02473e-08 109.89 2.15578e-08 4.39771e-08 109.89 -1.56488e-08 5.52965e-08 109.89 2.40255e-08 1.06345e-07 109.89 -1.83987e-10 1.11449e-07 109.89 1.63657e-08 1.41069e-07 109.89 9.33142e-09 4.66376e-09 109.89 -8.40373e-10 -3.88929e-08 109.89 1.06959e-08 -2.60885e-08 109.89 -4.86087e-09 -5.47596e-08 109.89 2.0528e-09 -5.33276e-08 109.89 6.8932e-08 5.56938e-08 109.89 -3.02753e-08 3.84347e-08 109.89 6.77439e-08 1.0422e-07 109.89 -3.22251e-09 8.92795e-08 109.89 3.8735e-08 1.2352e-07 109.89 5.37962e-08 2.36942e-08 109.89 -1.95769e-08 -3.04154e-08 109.89 5.14796e-08 6.48528e-09 109.89 -8.39253e-09 -3.04692e-08 109.89 2.36586e-08 -1.7013e-08 109.89 8.6774e-08 4.79401e-08 109.89 -3.35256e-08 2.07019e-09 109.89 8.36586e-08 6.38016e-08 109.89 -6.59771e-09 3.04997e-08 109.89 4.45244e-08 5.88335e-08 109.89 2.03719e-09 -1.95784e-09 109.89 -2.6075e-08 8.70172e-09 109.89 1.41845e-08 -4.0474e-09 109.89 2.12242e-10 2.55191e-09 109.89 1.77489e-08 -3.015e-09 109.89 3.35271e-09 6.97084e-09 109.89 2.98668e-08 -1.22909e-08 109.89 -1.5266e-08 1.18521e-08 109.89 -2.88251e-09 -1.78942e-09 109.89 -2.31623e-08 9.26065e-09 109.89 -3.15972e-09 2.08756e-09 109.89 -2.54284e-08 5.6761e-09 109.89 8.5136e-09 6.26631e-10 109.89 1.60284e-09 8.32137e-10 109.89 1.56661e-08 -9.9571e-10 109.89 -3.40845e-09 7.27074e-09 109.89 1.60635e-08 -1.10362e-08 109.89 -1.34569e-08 1.20976e-08 109.89 3.1392e-10 -1.99385e-09 109.89 -1.36601e-08 8.87138e-09 109.89 -6.56689e-09 5.87461e-09 109.89 -8.27666e-09 -3.16356e-09 109.89 -3.53733e-09 7.7091e-09 109.89 2.21837e-09 -1.11073e-09 109.89 3.03073e-09 4.38003e-09 109.89 2.52396e-08 -7.02132e-08 109.89 9.74495e-08 -2.11111e-08 109.89 3.15449e-08 -1.22362e-07 109.89 8.94446e-08 -9.35161e-08 109.89 5.94969e-08 -1.42713e-07 109.89 -2.2436e-08 -3.22118e-08 109.89 3.0033e-08 3.14962e-09 109.89 -3.03945e-08 -5.01053e-08 109.89 1.31458e-08 -2.63624e-08 109.89 -1.54154e-08 -5.13958e-08 109.89 3.83398e-08 -7.4382e-08 109.89 1.30345e-07 -1.59183e-08 109.89 4.64928e-08 -1.20333e-07 109.89 1.17978e-07 -8.43071e-08 109.89 8.07838e-08 -1.3426e-07 109.89 3.02792e-09 -4.41968e-08 109.89 7.8966e-08 -1.71231e-09 109.89 1.18431e-09 -6.88205e-08 109.89 6.11035e-08 -4.07275e-08 109.89 2.57621e-08 -7.24788e-08 109.89 3.10297e-08 -6.3468e-08 109.89 1.26362e-07 -8.68963e-09 109.89 3.62341e-08 -9.87901e-08 109.89 1.09735e-07 -6.36944e-08 109.89 6.97874e-08 -1.06432e-07 109.89 -2.1214e-09 -5.6214e-09 109.89 1.92792e-08 2.6734e-08 109.89 -5.79402e-09 -1.44427e-08 109.89 7.46787e-09 2.93123e-09 109.89 -3.40049e-09 -1.4599e-08 109.89 -7.58432e-09 -8.15833e-09 109.89 2.39013e-08 8.56972e-09 109.89 -1.45628e-08 -1.46117e-08 109.89 5.83008e-09 -4.70259e-09 109.89 -1.11933e-08 -1.50294e-08 109.89 -2.98303e-09 -6.16519e-09 109.89 2.46562e-08 2.25566e-08 109.89 -8.2517e-09 -1.45257e-08 109.89 8.34831e-09 1.09571e-09 109.89 -5.83822e-09 -1.48075e-08 109.89 -6.37169e-09 -7.95266e-09 109.89 2.60267e-08 1.17196e-08 109.89 -1.37377e-08 -1.51701e-08 109.89 6.42312e-09 -3.84519e-09 109.89 -1.10095e-08 -1.57071e-08 109.89 -4.58562e-09 -7.1502e-09 109.89 2.73854e-08 1.68376e-08 109.89 -1.14481e-08 -1.5022e-08 109.89 7.78093e-09 -1.65325e-09 109.89 -9.04843e-09 -1.55023e-08 109.89 -1.69159e-08 7.16327e-09 109.89 -6.13983e-09 1.22501e-09 109.89 -2.20377e-08 8.38454e-09 109.89 -1.53039e-08 5.28477e-09 109.89 -2.25624e-08 8.28484e-09 109.89 -2.43603e-08 1.83604e-08 109.89 6.53254e-09 -7.41139e-09 109.89 -2.26361e-08 1.24937e-08 109.89 -1.82271e-09 -6.00476e-09 109.89 -1.3948e-08 1.95753e-09 109.89 -5.01954e-10 -3.00039e-09 109.89 -6.92289e-09 1.42997e-09 109.89 -5.43245e-09 -5.43987e-10 109.89 -1.01311e-08 3.10269e-09 109.89 -1.00478e-08 2.43505e-09 109.89 6.6283e-09 3.00536e-10 109.89 3.80375e-09 -4.19348e-09 109.89 1.07428e-08 -2.73102e-09 109.89 9.21094e-09 -6.4909e-09 109.89 1.25658e-08 -6.08427e-09 109.89 1.6166e-08 -9.07479e-09 109.89 -2.49686e-09 -4.55472e-10 109.89 1.65335e-08 -8.27683e-09 109.89 4.07115e-09 -2.4517e-09 109.89 1.21301e-08 -5.66857e-09 109.89 -8.69873e-08 3.68353e-08 109.89 -2.42872e-08 -2.83665e-08 109.89 -8.85616e-08 -4.75567e-09 109.89 -4.12056e-08 -3.81003e-08 109.89 -6.93988e-08 -3.5118e-08 109.89 3.08889e-08 -1.3786e-08 109.89 2.47793e-08 -2.72635e-08 109.89 4.51399e-08 -3.81501e-08 109.89 4.57171e-08 -4.45796e-08 109.89 5.51947e-08 -5.27392e-08 109.89 -6.02955e-08 2.30511e-08 109.89 -3.00356e-08 -3.48205e-08 109.89 -6.64638e-08 -1.83915e-08 109.89 -3.90996e-08 -4.78598e-08 109.89 -5.657e-08 -4.77729e-08 109.89 2.21985e-08 -1.42532e-08 109.89 1.0234e-08 -3.32783e-08 109.89 2.92604e-08 -4.37648e-08 109.89 2.74877e-08 -5.23754e-08 109.89 3.51681e-08 -6.12897e-08 109.89 -1.33325e-08 4.09553e-10 109.89 -1.54082e-08 -3.75249e-08 109.89 -1.61646e-08 -3.63863e-08 109.89 -9.96953e-09 -5.49571e-08 109.89 -1.21424e-08 -6.03517e-08 109.89 1.28923e-08 6.0268e-10 109.89 7.62412e-10 5.06262e-10 109.89 2.06105e-08 3.19279e-09 109.89 1.42443e-08 2.15429e-09 109.89 2.35752e-08 4.02647e-09 109.89 -3.29151e-08 -1.68215e-08 109.89 2.58649e-08 -2.35562e-08 109.89 -3.81242e-08 -2.58621e-08 109.89 -1.65615e-09 -3.09701e-08 109.89 -2.975e-08 -3.32377e-08 109.89 5.42547e-09 -3.49916e-09 109.89 8.97113e-09 -4.29941e-09 109.89 1.08492e-08 -2.43649e-09 109.89 1.39673e-08 -3.66002e-09 109.89 1.49383e-08 -2.68107e-09 109.89 -3.17049e-08 -1.85819e-08 109.89 2.36255e-08 -1.84364e-08 109.89 -3.59379e-08 -2.51254e-08 109.89 -1.7524e-09 -2.58817e-08 109.89 -2.80963e-08 -2.97715e-08 109.89 -1.44345e-08 -1.24486e-08 109.89 1.78484e-08 -1.13299e-08 109.89 -1.41164e-08 -1.48985e-08 109.89 6.20224e-09 -1.48977e-08 109.89 -8.03437e-09 -1.69239e-08 109.89 -7.9325e-10 3.94649e-09 109.89 -8.82727e-11 7.16199e-10 109.89 -6.14648e-10 4.7465e-09 109.89 1.1468e-09 2.95472e-09 109.89 6.57053e-10 4.68559e-09 109.89 7.12272e-09 -5.65919e-10 109.89 -1.6567e-09 1.45722e-08 109.89 9.89761e-09 4.44203e-09 109.89 3.31177e-09 1.41914e-08 109.89 8.71588e-09 1.05637e-08 109.89 -1.04927e-09 3.65136e-09 109.89 1.96456e-09 2.20056e-09 109.89 -3.22132e-10 5.31129e-09 109.89 3.14393e-09 4.6723e-09 109.89 1.93347e-09 6.12386e-09 109.89 3.56999e-09 1.21108e-09 109.89 1.60893e-09 1.09106e-08 109.89 6.05844e-09 5.8553e-09 109.89 5.09629e-09 1.22195e-08 109.89 7.20003e-09 1.06529e-08 109.89 2.32063e-10 2.83064e-09 109.89 3.18914e-09 5.94678e-09 109.89 1.90289e-09 6.10231e-09 109.89 5.10879e-09 8.34819e-09 109.89 4.48125e-09 8.77257e-09 109.89 -1.52263e-08 7.59493e-09 109.89 -3.93986e-09 -1.12863e-09 109.89 -2.46192e-08 1.4277e-08 109.89 -1.75315e-08 1.01261e-08 109.89 -2.73131e-08 1.71085e-08 109.89 -1.46433e-08 1.33649e-08 109.89 6.89389e-09 -2.17065e-08 109.89 -1.66139e-08 6.47853e-09 109.89 6.43247e-10 -1.80814e-08 109.89 -1.01339e-08 -6.78074e-09 109.89 -3.01379e-09 3.27902e-09 109.89 -9.74181e-09 5.87674e-10 109.89 -9.84353e-09 8.50954e-09 109.89 -1.60053e-08 8.11403e-09 109.89 -1.65327e-08 1.18094e-08 109.89 8.57218e-09 7.34062e-10 109.89 1.97912e-09 -6.72633e-09 109.89 1.4656e-08 -4.72348e-09 109.89 1.05314e-08 -1.05588e-08 109.89 1.65849e-08 -1.0212e-08 109.89 1.24049e-08 -2.58445e-09 109.89 -6.8334e-09 1.45796e-09 109.89 1.48912e-08 -2.69019e-09 109.89 3.19602e-10 2.83528e-10 109.89 1.01659e-08 -1.54393e-09 109.89 2.62454e-09 4.64723e-08 109.89 1.28126e-08 -4.78853e-08 109.89 1.03602e-08 5.27725e-08 109.89 1.79975e-08 -2.28573e-09 109.89 1.77049e-08 3.9315e-08 109.89 1.92524e-08 -1.06132e-08 109.89 -1.75339e-08 -2.72065e-09 109.89 3.16299e-08 -2.59608e-08 109.89 3.77936e-09 -2.39807e-08 109.89 2.66593e-08 -3.50085e-08 109.89 1.68774e-08 4.07082e-08 109.89 -1.73e-08 -5.64327e-08 109.89 2.21394e-08 4.01373e-08 109.89 -3.48224e-09 -1.92221e-08 109.89 1.4302e-08 2.02676e-08 109.89 2.67164e-08 -4.17112e-10 109.89 -3.33099e-08 -2.03396e-08 109.89 3.57465e-08 -1.53289e-08 109.89 -9.48714e-09 -3.0671e-08 109.89 2.17427e-08 -3.0011e-08 109.89 2.81152e-08 2.14328e-08 109.89 -3.8136e-08 -4.5601e-08 109.89 3.38525e-08 1.20151e-08 109.89 -1.58026e-08 -3.13025e-08 109.89 1.62974e-08 -8.51358e-09 109.89 3.84229e-08 1.08433e-08 109.89 -2.93947e-08 -1.22376e-08 109.89 4.4593e-08 2.46557e-08 109.89 7.09004e-09 9.87803e-09 109.89 3.70359e-08 2.69372e-08 109.89 -2.03976e-08 -2.78601e-08 109.89 -2.22829e-08 3.31717e-08 109.89 -4.46963e-08 -2.34295e-08 109.89 -5.37974e-08 1.79976e-08 109.89 -6.53158e-08 -6.3658e-09 109.89 3.32411e-08 9.97002e-10 109.89 -4.21496e-08 -1.17432e-09 109.89 2.81207e-08 1.5342e-08 109.89 -1.84115e-08 1.66435e-08 109.89 8.68754e-09 2.41291e-08 109.89 -7.86302e-09 -2.53724e-08 109.89 -3.10506e-08 2.97629e-08 109.89 -3.34981e-08 -1.78337e-08 109.89 -5.59652e-08 2.14672e-08 109.89 -6.00398e-08 5.54174e-10 109.89 1.49736e-08 -1.41219e-08 109.89 -4.27292e-08 1.63356e-08 109.89 -3.75762e-09 -2.1279e-09 109.89 -4.47167e-08 2.19466e-08 109.89 -3.16653e-08 1.36345e-08 109.89 -1.84394e-09 1.72397e-09 109.89 -5.17316e-09 1.12602e-09 109.89 -2.73917e-09 1.04733e-08 109.89 -5.35877e-09 1.19117e-08 109.89 -4.23965e-09 1.6508e-08 109.89 1.35039e-09 4.34725e-09 109.89 -3.18046e-09 1.55695e-09 109.89 1.37047e-09 7.54439e-09 109.89 -4.86798e-09 6.11367e-09 109.89 -2.20283e-09 8.90258e-09 109.89 -4.83169e-12 3.5358e-09 109.89 -5.32238e-09 -1.10044e-10 109.89 1.90667e-10 1.15797e-08 109.89 -5.23822e-09 1.07589e-08 109.89 -2.38514e-09 1.62925e-08 109.89 1.59415e-09 4.67951e-09 109.89 -4.07213e-09 7.26276e-10 109.89 1.73517e-09 9.16581e-09 109.89 -5.71007e-09 7.22577e-09 109.89 -2.39146e-09 1.11401e-08 109.89 1.37007e-09 4.70216e-09 109.89 -4.98438e-09 -2.64553e-10 109.89 1.88849e-09 1.11365e-08 109.89 -5.6459e-09 8.99206e-09 109.89 -1.89478e-09 1.42911e-08 109.89 3.40298e-08 9.44329e-09 109.89 -1.79593e-08 2.06725e-09 109.89 2.16585e-08 1.46843e-08 109.89 -2.08605e-08 9.26789e-09 109.89 -3.70548e-09 1.54014e-08 109.89 1.11656e-08 -6.32974e-09 109.89 -2.37977e-08 -3.81572e-08 109.89 -1.11e-09 -5.24346e-08 109.89 -2.69588e-08 -7.26371e-08 109.89 -1.8182e-08 -8.46129e-08 109.89 6.59423e-08 1.07458e-08 109.89 -3.53919e-08 -2.22848e-09 109.89 4.56096e-08 7.35663e-09 109.89 -3.21733e-08 -1.68267e-09 109.89 2.14389e-09 2.11924e-09 109.89 5.05035e-08 -1.6871e-10 109.89 -4.06601e-08 -3.19605e-08 109.89 2.92668e-08 -3.94957e-08 109.89 -3.81474e-08 -6.01652e-08 109.89 -9.45539e-09 -6.82612e-08 109.89 7.74973e-08 7.29148e-09 109.89 -4.73581e-08 -1.65402e-08 109.89 5.20827e-08 -1.45081e-08 109.89 -4.13305e-08 -3.04327e-08 109.89 1.98678e-10 -3.21472e-08 109.89 -7.45031e-09 1.85608e-08 109.89 -9.84525e-09 2.06042e-08 109.89 -1.6897e-09 5.90758e-08 109.89 -3.75998e-09 6.34231e-08 109.89 2.09737e-10 8.40233e-08 109.89 5.21732e-08 -1.22266e-08 109.89 -4.13269e-08 3.38511e-10 109.89 2.97413e-08 -9.75863e-09 109.89 -4.50006e-08 -6.16903e-09 109.89 -1.41809e-08 -8.8893e-09 109.89 2.62818e-09 1.57825e-08 109.89 -4.81362e-08 1.58234e-08 109.89 1.21338e-10 5.31197e-08 109.89 -3.95843e-08 5.58162e-08 109.89 -1.84898e-08 7.58445e-08 109.89 2.96567e-08 -6.30854e-09 109.89 -6.24762e-08 3.53367e-09 109.89 1.36354e-08 5.39491e-09 109.89 -6.21484e-08 1.01807e-08 109.89 -2.82386e-08 1.3345e-08 109.89 1.29887e-08 5.65448e-09 109.89 -7.14012e-08 9.29911e-09 109.89 3.04271e-09 3.18985e-08 109.89 -6.52612e-08 3.55725e-08 109.89 -3.24375e-08 4.87009e-08 109.89 -1.5089e-08 -3.50123e-09 109.89 3.64225e-08 5.32894e-09 109.89 -1.20006e-08 -7.26766e-09 109.89 3.08725e-08 -1.5898e-09 109.89 8.82631e-09 -7.39289e-09 109.89 -1.43016e-08 1.82074e-08 109.89 1.64558e-08 2.29952e-08 109.89 -3.46017e-09 5.83207e-08 109.89 1.95699e-08 6.44778e-08 109.89 1.15649e-08 8.3607e-08 109.89 -2.97284e-08 -1.78378e-09 109.89 6.97965e-08 1.21493e-08 109.89 -1.73394e-08 2.99286e-09 109.89 6.03979e-08 1.26118e-08 109.89 2.23775e-08 9.12679e-09 109.89 -2.60868e-08 1.46688e-08 109.89 5.68962e-08 2.45256e-08 109.89 -8.50124e-09 4.95828e-08 109.89 5.42876e-08 5.87269e-08 109.89 2.67257e-08 7.2859e-08 109.89 -3.51115e-08 5.92156e-09 109.89 8.33469e-08 2.05498e-08 109.89 -1.57338e-08 2.66837e-08 109.89 7.47987e-08 3.78848e-08 109.89 3.23901e-08 4.25104e-08 109.89 4.68306e-08 1.30122e-09 109.89 -1.08985e-08 -5.81e-10 109.89 4.91368e-08 4.26949e-09 109.89 3.88443e-09 3.73136e-09 109.89 3.09241e-08 6.04107e-09 109.89 -1.07621e-09 -1.65838e-08 109.89 -1.92094e-08 -7.56615e-09 109.89 -1.18193e-08 -4.5816e-08 109.89 -2.43193e-08 -4.42194e-08 109.89 -2.24709e-08 -6.29269e-08 109.89 6.94563e-08 -7.76768e-10 109.89 -2.78462e-08 -4.18167e-09 109.89 6.27561e-08 -4.45769e-09 109.89 -1.15515e-08 -7.05867e-09 109.89 2.78071e-08 -7.48623e-09 109.89 3.85573e-08 -1.52931e-08 109.89 -3.04721e-08 -7.5781e-09 109.89 2.32314e-08 -4.07676e-08 109.89 -2.80219e-08 -3.91973e-08 109.89 -6.30434e-09 -5.54657e-08 109.89 7.09868e-08 -8.18144e-09 109.89 -3.68535e-08 -6.90269e-09 109.89 5.6325e-08 -2.3589e-08 109.89 -2.49932e-08 -2.47599e-08 109.89 1.43685e-08 -3.31698e-08 109.89 1.6357e-08 3.03213e-09 109.89 -1.88944e-08 3.52811e-09 109.89 1.87226e-08 2.41734e-08 109.89 -5.47772e-09 2.92936e-08 109.89 1.11909e-08 3.9607e-08 109.89 3.54136e-08 -8.69342e-09 109.89 -6.22025e-08 1.93514e-08 109.89 3.29224e-08 -4.56399e-09 109.89 -4.27699e-08 1.57363e-08 109.89 -8.32209e-10 5.42981e-09 109.89 3.44492e-08 -7.67232e-10 109.89 -5.45732e-08 6.95607e-09 109.89 3.07392e-08 1.9474e-08 109.89 -3.3165e-08 2.9395e-08 109.89 3.57479e-09 3.61049e-08 109.89 4.51234e-08 -9.62612e-09 109.89 -7.83214e-08 1.76975e-08 109.89 3.99364e-08 -7.29933e-10 109.89 -5.26183e-08 2.00887e-08 109.89 -1.28459e-09 1.25351e-08 109.89 4.75092e-08 -6.51442e-09 109.89 -8.03212e-08 1.27749e-08 109.89 4.07371e-08 9.08458e-09 109.89 -5.28564e-08 2.58881e-08 109.89 -7.94334e-10 2.52306e-08 109.89 -2.48903e-08 1.93285e-09 109.89 3.90465e-08 -4.95448e-10 109.89 -2.69962e-08 -4.77518e-11 109.89 1.97651e-08 -2.57749e-09 109.89 -9.1589e-09 -2.46179e-09 109.89 4.66257e-09 4.46731e-09 109.89 4.68222e-09 2.18215e-09 109.89 1.14033e-08 2.50953e-08 109.89 1.29918e-08 2.81465e-08 109.89 1.67281e-08 3.94238e-08 109.89 -3.36412e-08 1.00218e-09 109.89 6.4136e-08 1.43283e-09 109.89 -2.73384e-08 3.84502e-09 109.89 4.43982e-08 4.46472e-09 109.89 5.38442e-09 5.75584e-09 109.89 -1.493e-08 5.13155e-09 109.89 4.2175e-08 1.15803e-09 109.89 -2.56651e-09 2.29836e-08 109.89 4.0515e-08 2.41721e-08 109.89 2.253e-08 3.48192e-08 109.89 -3.21023e-08 3.00534e-09 109.89 7.01808e-08 1.62275e-09 109.89 -1.89637e-08 1.39352e-08 109.89 5.65784e-08 1.52404e-08 109.89 1.93813e-08 2.13395e-08 109.89 -2.78774e-08 -1.30692e-08 109.89 2.65361e-08 -2.61792e-08 109.89 -3.25218e-08 -2.31154e-08 109.89 1.4989e-09 -3.21883e-08 109.89 -2.42866e-08 -3.22472e-08 109.89 9.31362e-08 1.12023e-08 109.89 2.66315e-08 -9.20016e-09 109.89 1.00619e-07 2.28544e-09 109.89 6.08727e-08 -1.10901e-08 109.89 9.35673e-08 -6.94278e-09 109.89 -9.18456e-09 -3.52832e-09 109.89 2.89245e-08 -2.8396e-08 109.89 -1.21613e-08 -1.48038e-08 109.89 1.22687e-08 -3.11496e-08 109.89 -5.48014e-09 -2.6797e-08 109.89 7.36016e-08 1.69597e-08 109.89 3.25136e-08 -1.67635e-08 109.89 7.80227e-08 6.86863e-09 109.89 5.42609e-08 -1.47308e-08 109.89 7.437e-08 -5.6983e-09 109.89 3.13633e-08 1.0583e-08 109.89 3.28384e-08 -2.5281e-08 109.89 3.16415e-08 -8.50709e-10 109.89 3.39724e-08 -2.39145e-08 109.89 3.3685e-08 -1.48545e-08 109.89 2.59932e-09 9.58113e-09 109.89 8.8942e-08 9.52383e-09 109.89 8.17094e-09 2.04818e-08 109.89 6.74015e-08 1.86951e-08 109.89 3.29785e-08 2.51146e-08 109.89 -6.81428e-08 1.94658e-08 109.89 -6.6885e-08 6.86888e-09 109.89 -8.81863e-08 4.17266e-08 109.89 -8.27927e-08 3.58682e-08 109.89 -9.53207e-08 5.26655e-08 109.89 -6.92619e-09 3.76613e-09 109.89 7.88671e-08 -2.4205e-09 109.89 -4.90185e-09 1.50147e-08 109.89 5.35935e-08 8.90526e-09 109.89 1.75521e-08 1.82113e-08 109.89 -5.86278e-08 8.9935e-09 109.89 -2.88387e-08 -5.8453e-09 109.89 -7.42667e-08 2.68445e-08 109.89 -5.09717e-08 1.75901e-08 109.89 -7.30954e-08 3.34842e-08 109.89 -3.24344e-08 1.79205e-09 109.89 3.39973e-08 -1.09483e-08 109.89 -3.88616e-08 1.51818e-08 109.89 7.29075e-09 5.37445e-09 109.89 -2.51771e-08 1.84846e-08 109.89 -6.56468e-09 1.64763e-08 109.89 -2.30007e-08 -7.31542e-09 109.89 -9.54895e-09 1.56388e-08 109.89 -1.60478e-08 2.18303e-09 109.89 -1.16434e-08 1.13204e-08 109.89 3.7179e-09 1.34965e-08 109.89 8.64213e-08 1.65671e-08 109.89 1.01062e-08 2.44098e-08 109.89 6.73042e-08 2.50151e-08 109.89 3.48025e-08 3.00194e-08 109.89 -8.01099e-09 2.03018e-08 109.89 -5.5939e-09 2.74984e-09 109.89 -8.842e-09 2.22045e-08 109.89 -2.52516e-09 1.25678e-08 109.89 -5.12476e-09 2.05951e-08 109.89 2.01671e-09 1.9209e-08 109.89 6.99246e-08 2.25344e-08 109.89 8.18977e-09 2.90502e-08 109.89 5.64629e-08 3.07234e-08 109.89 2.99745e-08 3.47967e-08 109.89 -4.07007e-09 2.23863e-08 109.89 3.18463e-08 1.67674e-08 109.89 -9.29836e-10 2.86844e-08 109.89 2.72234e-08 2.58827e-08 109.89 1.25201e-08 3.14709e-08 109.89 -1.51463e-08 7.96681e-09 109.89 4.12469e-08 1.673e-08 109.89 1.26656e-08 2.30729e-08 109.89 5.91772e-08 3.03339e-08 109.89 4.85984e-08 3.46448e-08 109.89 -1.73646e-08 -1.67756e-08 109.89 -9.47562e-11 2.83492e-08 109.89 -1.02555e-08 2.25615e-08 109.89 -2.63443e-09 4.85223e-08 109.89 -5.10422e-09 5.1827e-08 109.89 1.79739e-09 8.50554e-09 109.89 3.24706e-08 2.32925e-08 109.89 2.47969e-08 3.3603e-08 109.89 5.22399e-08 4.39497e-08 109.89 5.04304e-08 5.14447e-08 109.89 -7.61682e-09 -1.01446e-08 109.89 6.93059e-09 2.96369e-08 109.89 2.25082e-09 2.97342e-08 109.89 1.08174e-08 5.30378e-08 109.89 1.04472e-08 5.87731e-08 109.89 4.61451e-09 1.27672e-09 109.89 1.92395e-08 2.86248e-08 109.89 2.04368e-08 3.65812e-08 109.89 3.33631e-08 5.34718e-08 109.89 3.53033e-08 6.16368e-08 109.89 -2.44227e-08 1.73648e-08 109.89 -2.5243e-08 -4.26647e-08 109.89 -3.56544e-08 -4.09446e-08 109.89 -3.34267e-08 -7.52028e-08 109.89 -3.97203e-08 -8.26153e-08 109.89 5.32951e-09 -2.58541e-08 109.89 3.4597e-08 1.86918e-08 109.89 1.92492e-08 -3.29266e-09 109.89 4.24667e-08 2.4112e-08 109.89 3.68352e-08 1.81304e-08 109.89 -4.14506e-08 5.90298e-09 109.89 -2.19883e-08 -3.75117e-08 109.89 -5.18184e-08 -4.25702e-08 109.89 -3.18328e-08 -6.5584e-08 109.89 -4.718e-08 -7.46773e-08 109.89 -1.92662e-08 -2.71438e-08 109.89 2.41722e-08 6.09118e-09 109.89 -1.05296e-08 -1.87648e-08 109.89 2.55799e-08 3.28867e-09 109.89 1.04107e-08 -6.04654e-09 109.89 -4.15051e-08 -1.38964e-08 109.89 -1.19786e-09 -1.79179e-08 109.89 -4.39113e-08 -3.53797e-08 109.89 -7.7191e-09 -3.44561e-08 109.89 -2.80727e-08 -4.50378e-08 109.89 6.21145e-08 -1.38641e-08 109.89 -2.73849e-08 -1.15504e-09 109.89 3.94311e-08 -1.56748e-08 109.89 -3.23914e-08 -1.33222e-08 109.89 -3.67037e-09 -1.83265e-08 109.89 -9.62294e-09 2.13071e-08 109.89 -2.21876e-08 -4.17064e-08 109.89 -1.99778e-08 -3.81156e-08 109.89 -2.83289e-08 -7.51383e-08 109.89 -2.85982e-08 -8.17869e-08 109.89 6.30804e-08 -1.20407e-08 109.89 -9.38261e-09 -7.10725e-09 109.89 4.77017e-08 -2.49274e-08 109.89 -1.45484e-08 -2.83239e-08 109.89 1.07168e-08 -3.6242e-08 109.89 1.75361e-08 1.90671e-08 109.89 -1.33628e-08 -3.53539e-08 109.89 9.25563e-09 -3.4818e-08 109.89 -1.7004e-08 -6.89419e-08 109.89 -7.3968e-09 -7.58424e-08 109.89 4.74332e-08 2.12445e-09 109.89 -3.75562e-09 -2.09422e-08 109.89 3.90789e-08 -3.2091e-08 109.89 -7.32249e-09 -5.08823e-08 109.89 1.20064e-08 -5.9416e-08 109.89 -4.389e-08 -2.91331e-08 109.89 6.87126e-08 -1.23436e-08 109.89 -1.48486e-08 -2.9138e-08 109.89 6.69187e-08 -1.17975e-08 109.89 3.45513e-08 -2.02319e-08 109.89 -1.26714e-08 3.14333e-08 109.89 -3.43509e-09 5.93474e-08 109.89 -7.11466e-09 9.65182e-08 109.89 2.61631e-09 1.13852e-07 109.89 5.33541e-10 1.37758e-07 109.89 -8.31312e-08 -4.00265e-08 109.89 6.37703e-08 -5.00196e-09 109.89 -6.03698e-08 -2.745e-08 109.89 4.70484e-08 1.135e-09 109.89 -4.92621e-09 -7.72258e-09 109.89 -6.55345e-08 4.96404e-09 109.89 1.82986e-08 5.25058e-08 109.89 -5.63348e-08 6.49508e-08 109.89 6.81711e-09 9.76724e-08 109.89 -2.60146e-08 1.10104e-07 109.89 -9.99504e-08 -2.77972e-08 109.89 4.412e-08 2.22466e-08 109.89 -8.62176e-08 1.01491e-08 109.89 1.93444e-08 4.68475e-08 109.89 -3.73023e-08 4.60145e-08 109.89 8.55211e-09 -7.5482e-08 109.89 1.72659e-08 1.43615e-09 109.89 3.5997e-09 -1.11959e-07 109.89 1.00446e-08 -6.59477e-08 109.89 3.77222e-09 -1.17268e-07 109.89 -2.85921e-08 1.22657e-08 109.89 4.53062e-09 2.26233e-08 109.89 -3.80914e-08 3.71768e-08 109.89 -8.93593e-09 4.70179e-08 109.89 -2.95805e-08 5.57242e-08 109.89 -2.33917e-08 -7.73912e-08 109.89 6.11713e-08 2.02057e-08 109.89 -2.17268e-08 -1.0091e-07 109.89 3.96722e-08 -3.92795e-08 109.89 3.95518e-09 -9.25302e-08 109.89 -4.38851e-08 -1.14322e-08 109.89 4.65784e-08 3.12633e-08 109.89 -4.62274e-08 7.19581e-09 109.89 2.32396e-08 3.78294e-08 109.89 -1.81659e-08 2.96651e-08 109.89 -4.71333e-08 -5.15891e-08 109.89 7.7255e-08 3.29262e-08 109.89 -4.4136e-08 -5.24038e-08 109.89 4.75863e-08 3.57447e-09 109.89 -5.12146e-09 -3.23181e-08 109.89 6.12482e-10 3.81943e-08 109.89 -5.28544e-08 -2.60144e-08 109.89 -1.24173e-08 2.9348e-08 109.89 -5.62493e-08 -1.49908e-08 109.89 -3.9212e-08 7.62243e-09 109.89 2.82523e-08 -6.64104e-08 109.89 -1.49772e-08 -1.13917e-08 109.89 1.77394e-08 -1.0769e-07 109.89 -1.3177e-08 -7.70008e-08 109.89 7.24813e-11 -1.21612e-07 109.89 3.9522e-08 3.50802e-08 109.89 -8.57201e-08 -4.37501e-08 109.89 2.15013e-08 1.51342e-08 109.89 -7.24907e-08 -4.0599e-08 109.89 -2.73118e-08 -1.76351e-08 109.89 5.71093e-08 -3.981e-08 109.89 -6.42471e-08 -3.19984e-08 109.89 3.96614e-08 -8.34325e-08 109.89 -4.78637e-08 -8.45976e-08 109.89 -4.44584e-09 -1.10572e-07 109.89 6.81147e-08 4.67712e-09 109.89 -9.71541e-08 -4.80272e-08 109.89 4.79395e-08 -3.03627e-08 109.89 -7.26991e-08 -7.07341e-08 109.89 -1.15781e-08 -6.67276e-08 109.89 -7.6381e-08 -5.8668e-09 109.89 -9.3234e-08 -5.55892e-08 109.89 -8.18874e-08 -4.18524e-08 109.89 -1.02455e-07 -7.97817e-08 109.89 -9.61863e-08 -7.64213e-08 109.89 1.18489e-08 -6.30063e-08 109.89 7.21103e-08 -2.32968e-08 109.89 1.60068e-08 -1.17577e-07 109.89 6.56561e-08 -9.54567e-08 109.89 3.93755e-08 -1.41856e-07 109.89 -8.61519e-08 -3.53226e-09 109.89 -7.6125e-08 -4.66427e-08 109.89 -9.27931e-08 -4.83225e-08 109.89 -9.23444e-08 -8.55977e-08 109.89 -1.00918e-07 -8.846e-08 109.89 -1.87671e-08 -4.56264e-08 109.89 2.98738e-08 -2.75054e-08 109.89 -1.75676e-08 -1.02967e-07 109.89 2.31555e-08 -9.70162e-08 109.89 -5.72619e-10 -1.35115e-07 109.89 -6.30376e-08 -1.95194e-08 109.89 -2.84553e-08 -3.6052e-08 109.89 -6.59085e-08 -7.44007e-08 109.89 -3.97967e-08 -9.46093e-08 109.89 -5.97797e-08 -1.14951e-07 109.89 2.62283e-08 4.22141e-08 109.89 2.7436e-08 -3.41759e-08 109.89 3.55254e-08 6.31512e-08 109.89 3.32415e-08 2.1755e-08 109.89 3.8762e-08 6.35226e-08 109.89 3.41732e-08 1.68401e-08 109.89 -1.10938e-08 -1.81877e-08 109.89 4.44331e-08 2.70257e-08 109.89 1.17883e-08 5.34142e-09 109.89 3.73119e-08 2.55168e-08 109.89 3.45281e-08 3.64053e-08 109.89 4.09174e-08 -4.16063e-08 109.89 4.79071e-08 5.42805e-08 109.89 4.76399e-08 1.04892e-08 109.89 5.34892e-08 5.16512e-08 109.89 3.75951e-08 2.15353e-08 109.89 1.17746e-08 -2.54595e-08 109.89 5.09149e-08 3.37175e-08 109.89 2.99269e-08 5.5093e-09 109.89 4.91816e-08 3.1557e-08 109.89 3.92589e-08 2.86412e-08 109.89 3.61318e-08 -3.73805e-08 109.89 5.45565e-08 4.33738e-08 109.89 4.75907e-08 5.03498e-09 109.89 5.85725e-08 4.00004e-08 109.89 -6.81929e-08 2.62343e-08 109.89 -8.0306e-08 1.56722e-08 109.89 -8.92418e-08 5.10181e-08 109.89 -9.23632e-08 4.75822e-08 109.89 -9.97806e-08 6.45854e-08 109.89 1.99553e-08 4.52211e-08 109.89 1.4353e-08 -2.60042e-08 109.89 2.62121e-08 6.80789e-08 109.89 2.05472e-08 3.05254e-08 109.89 2.70474e-08 7.09978e-08 109.89 -5.91353e-08 3.74397e-08 109.89 -8.74535e-08 2.34381e-08 109.89 -7.89322e-08 6.55686e-08 109.89 -9.29062e-08 6.2094e-08 109.89 -9.26409e-08 8.17777e-08 109.89 1.84967e-09 4.87378e-08 109.89 -1.64525e-08 -8.27979e-09 109.89 9.00005e-10 7.49602e-08 109.89 -1.09973e-08 4.70152e-08 109.89 -3.53931e-09 8.31272e-08 109.89 -3.11999e-08 4.72019e-08 109.89 -6.20987e-08 1.44603e-08 109.89 -4.32345e-08 7.62565e-08 109.89 -6.06762e-08 6.31394e-08 109.89 -5.4595e-08 9.06426e-08 109.89 7.37032e-09 -6.0063e-09 109.89 3.9692e-08 -2.15578e-08 109.89 1.9917e-08 -1.57468e-08 109.89 3.75188e-08 -2.51695e-08 109.89 3.15961e-08 -2.39957e-08 109.89 -9.53498e-08 4.15627e-08 109.89 -1.47901e-08 -2.38084e-08 109.89 -9.21248e-08 1.19102e-09 109.89 -3.41492e-08 -3.20823e-08 109.89 -6.69199e-08 -2.83489e-08 109.89 -3.30306e-08 5.07491e-09 109.89 5.19298e-08 -1.44943e-08 109.89 -1.17066e-08 -1.06725e-08 109.89 4.08078e-08 -2.0059e-08 109.89 1.77148e-08 -2.08424e-08 109.89 -1.00665e-07 4.18675e-08 109.89 8.43143e-09 -1.63585e-08 109.89 -8.78877e-08 5.7266e-09 109.89 -1.36934e-08 -2.32359e-08 109.89 -5.26036e-08 -2.00251e-08 109.89 -8.11926e-08 2.66237e-08 109.89 4.02887e-08 -1.12358e-08 109.89 -5.87609e-08 2.51299e-12 109.89 1.99488e-08 -1.77949e-08 109.89 -1.81371e-08 -1.74423e-08 109.89 9.44038e-08 2.48857e-08 109.89 -7.90262e-08 6.47628e-08 109.89 6.96641e-08 9.15905e-08 109.89 -5.13365e-08 1.07535e-07 109.89 8.65509e-09 1.29392e-07 109.89 3.53117e-08 2.05232e-08 109.89 2.29128e-08 2.76843e-09 109.89 3.58379e-08 4.36998e-08 109.89 1.67781e-08 2.98811e-08 109.89 2.44562e-08 5.05594e-08 109.89 1.29085e-07 2.66072e-08 109.89 -5.0801e-08 5.08817e-08 109.89 1.06408e-07 8.74044e-08 109.89 -1.96004e-08 9.43422e-08 109.89 4.47269e-08 1.19342e-07 109.89 8.31381e-08 2.16055e-08 109.89 1.93911e-08 6.00891e-09 109.89 7.7557e-08 5.30654e-08 109.89 2.48991e-08 3.91671e-08 109.89 5.07816e-08 6.37964e-08 109.89 1.28102e-07 2.48006e-08 109.89 -8.16869e-09 2.54064e-08 109.89 1.13157e-07 7.14283e-08 109.89 1.41976e-08 6.54783e-08 109.89 6.5053e-08 9.21574e-08 109.89 -8.39734e-08 -3.74208e-08 109.89 -3.63912e-10 -7.63215e-10 109.89 -7.0395e-08 -1.64031e-08 109.89 -1.81987e-08 3.44635e-09 109.89 -4.65211e-08 -5.30207e-10 109.89 6.83529e-08 2.31812e-08 109.89 -8.99297e-08 6.8784e-08 109.89 4.31032e-08 9.08064e-08 109.89 -6.7751e-08 1.10077e-07 109.89 -1.47986e-08 1.30026e-07 109.89 -7.15208e-08 -1.58478e-08 109.89 -4.3508e-08 1.5438e-08 109.89 -7.9928e-08 1.79102e-08 109.89 -6.40669e-08 2.82277e-08 109.89 -8.34812e-08 3.28119e-08 109.89 2.475e-08 1.8942e-08 109.89 -1.00973e-07 6.66273e-08 109.89 -3.4791e-09 8.47816e-08 109.89 -9.18573e-08 1.03867e-07 109.89 -5.55987e-08 1.21679e-07 109.89 -3.20954e-08 6.46536e-09 109.89 -8.90203e-08 4.51562e-08 109.89 -5.83375e-08 6.06922e-08 109.89 -9.92153e-08 7.21777e-08 109.89 -9.27349e-08 8.61778e-08 109.89 -2.4216e-08 -2.68354e-08 109.89 -1.91602e-08 3.24073e-08 109.89 -4.5561e-08 -2.3679e-08 109.89 -4.95164e-08 1.54887e-08 109.89 -6.19941e-08 -8.29867e-09 109.89 1.3237e-08 1.26277e-09 109.89 -3.95297e-09 3.0269e-09 109.89 2.13559e-08 4.23907e-09 109.89 1.18261e-08 4.14759e-09 109.89 2.38571e-08 5.67379e-09 109.89 -2.3834e-08 -2.19969e-08 109.89 -1.54212e-08 2.86915e-08 109.89 -3.80256e-08 -2.01784e-08 109.89 -3.79214e-08 1.18424e-08 109.89 -4.75157e-08 -8.25549e-09 109.89 6.83048e-09 -1.51962e-09 109.89 -9.77171e-09 9.34043e-09 109.89 1.25651e-08 1.34549e-09 109.89 2.60049e-09 6.68471e-09 109.89 1.3721e-08 4.60937e-09 109.89 -1.03887e-08 -1.1341e-08 109.89 -1.30029e-08 1.98425e-08 109.89 -1.34047e-08 -9.43951e-09 109.89 -1.71217e-08 8.92776e-09 109.89 -1.60369e-08 -2.26943e-09 109.89 -1.38148e-09 -7.21302e-10 109.89 7.88867e-09 -1.24084e-09 109.89 -3.53081e-09 -3.07848e-09 109.89 5.81206e-10 -3.8102e-09 109.89 -4.07756e-09 -4.80213e-09 109.89 -4.23795e-09 1.39885e-08 109.89 -2.77484e-08 -1.15717e-08 109.89 -7.93119e-09 1.2011e-08 109.89 -1.94965e-08 -2.62265e-09 109.89 -1.23365e-08 6.66348e-09 109.89 5.13577e-10 5.0847e-10 109.89 1.94449e-09 -4.54134e-09 109.89 -2.07768e-09 -2.3496e-09 109.89 -2.50466e-09 -5.65741e-09 109.89 -4.11025e-09 -5.04934e-09 109.89 -7.62629e-10 9.44006e-09 109.89 -2.75701e-08 -1.48015e-08 109.89 -4.96455e-09 6.17211e-09 109.89 -1.99268e-08 -7.93443e-09 109.89 -1.13007e-08 1.91619e-10 109.89 1.29571e-09 4.06431e-09 109.89 -1.40416e-08 -1.12863e-08 109.89 -2.33351e-09 5.365e-10 109.89 -1.19576e-08 -8.62857e-09 109.89 -7.3608e-09 -4.19847e-09 109.89 -5.58166e-10 -7.13918e-10 109.89 -1.22823e-08 -2.59806e-08 109.89 4.5478e-09 -6.22576e-09 109.89 3.06752e-09 -2.23017e-08 109.89 9.30679e-09 -1.46355e-08 109.89 -2.62846e-09 -9.43237e-10 109.89 8.09681e-09 -6.64397e-10 109.89 -4.71181e-09 -3.13132e-09 109.89 3.42056e-10 -3.42428e-09 109.89 -4.96726e-09 -4.67202e-09 109.89 -1.20105e-09 2.13365e-10 109.89 -1.51003e-08 -2.07457e-08 109.89 1.26617e-09 -3.83955e-09 109.89 -3.50718e-09 -1.70935e-08 109.89 2.51865e-09 -1.05512e-08 109.89 -3.70835e-09 -7.56408e-10 109.89 3.50349e-09 -2.86441e-09 109.89 -5.39459e-09 -2.86882e-09 109.89 -1.83773e-09 -4.62432e-09 109.89 -5.74083e-09 -4.88215e-09 109.89 -2.89339e-09 5.99849e-11 109.89 -8.00077e-09 -1.10843e-08 109.89 -3.11223e-09 -2.6015e-09 109.89 -5.14108e-09 -9.81173e-09 109.89 -3.66885e-09 -6.65032e-09 109.89 -1.32301e-08 3.2506e-09 109.89 2.98516e-09 3.95207e-08 109.89 -1.59218e-08 1.2012e-08 109.89 1.66531e-09 3.75341e-08 109.89 -7.89963e-09 2.6826e-08 109.89 -5.89498e-09 4.59253e-08 109.89 3.2038e-08 -3.73111e-08 109.89 4.13724e-09 5.56848e-08 109.89 3.27281e-08 9.03225e-09 109.89 2.15148e-08 4.76587e-08 109.89 -2.74221e-08 7.88941e-09 109.89 3.99216e-08 4.22242e-08 109.89 -2.49387e-08 2.03636e-08 109.89 2.96506e-08 4.76064e-08 109.89 7.84113e-10 3.91672e-08 109.89 -2.09858e-08 3.91824e-08 109.89 5.90252e-08 -1.24102e-08 109.89 -9.46465e-09 5.31783e-08 109.89 5.1115e-08 2.82622e-08 109.89 2.22312e-08 5.5784e-08 109.89 -3.31058e-08 2.26137e-08 109.89 6.76058e-08 2.27891e-08 109.89 -2.47427e-08 3.7818e-08 109.89 5.26932e-08 4.58166e-08 109.89 1.28167e-08 5.25515e-08 109.89 -1.78956e-08 -2.08094e-08 109.89 -1.6429e-09 3.90121e-08 109.89 -1.08615e-08 -7.65807e-09 109.89 -6.52326e-09 2.54764e-08 109.89 -8.25929e-09 8.72712e-09 109.89 9.81554e-09 -1.55639e-08 109.89 7.39229e-09 -9.6703e-10 109.89 -1.16028e-08 2.87299e-09 109.89 -1.11966e-08 1.21909e-08 109.89 -2.22105e-08 1.61549e-08 109.89 -2.75081e-08 -2.5186e-08 109.89 1.00733e-08 3.67832e-08 109.89 -2.27527e-08 -8.11805e-09 109.89 -1.76715e-09 2.76788e-08 109.89 -1.41692e-08 1.1925e-08 109.89 -2.30689e-09 -2.04544e-08 109.89 1.49265e-08 7.58351e-09 109.89 -1.84521e-08 2.83938e-10 109.89 -5.27171e-09 1.74919e-08 109.89 -2.16054e-08 1.72501e-08 109.89 -2.09086e-08 -2.54372e-08 109.89 1.80004e-08 2.39355e-08 109.89 -2.59075e-08 -4.85889e-09 109.89 -5.95453e-10 2.45826e-08 109.89 -1.95229e-08 1.56514e-08 109.89 4.03126e-08 -1.84197e-08 109.89 -7.70781e-09 1.43359e-10 109.89 3.6599e-08 -1.3745e-08 109.89 4.69399e-09 -4.47421e-09 109.89 2.27808e-08 -9.20827e-09 109.89 -7.44643e-09 -1.72754e-08 109.89 -9.00816e-09 3.72322e-08 109.89 -1.33537e-09 -6.42023e-09 109.89 -9.97451e-09 2.26418e-08 109.89 -4.51831e-09 6.97736e-09 109.89 5.55921e-08 -1.0544e-08 109.89 -2.09759e-08 3.32126e-09 109.89 5.1534e-08 -6.243e-09 109.89 -2.9352e-09 -2.12577e-09 109.89 2.76514e-08 -4.70162e-09 109.89 1.67276e-08 -1.10374e-08 109.89 -2.0883e-08 2.99426e-08 109.89 2.02732e-08 -3.5087e-09 109.89 -1.33116e-08 1.60788e-08 109.89 6.06386e-09 4.37433e-09 109.89 4.76217e-08 -6.60533e-09 109.89 -2.83002e-08 1.53328e-08 109.89 4.68519e-08 -1.58886e-09 109.89 -1.09286e-08 5.94303e-09 109.89 2.19194e-08 7.46063e-10 109.89 -5.23836e-08 2.07286e-08 109.89 6.6897e-08 -1.2464e-08 109.89 -3.87449e-08 1.81309e-08 109.89 5.19045e-08 -8.0686e-09 109.89 7.94569e-09 5.79153e-09 109.89 3.79472e-08 1.50864e-08 109.89 -1.74608e-08 -1.68262e-08 109.89 4.99673e-08 2.78615e-08 109.89 2.23439e-08 5.63202e-09 109.89 5.03338e-08 2.65785e-08 109.89 -2.56123e-08 2.3212e-08 109.89 7.22326e-08 -1.17305e-08 109.89 -8.30904e-09 2.47435e-08 109.89 6.71318e-08 -4.47472e-09 109.89 3.41641e-08 1.35153e-08 109.89 3.06826e-08 2.08415e-08 109.89 1.21273e-08 -2.06652e-08 109.89 5.00822e-08 3.12906e-08 109.89 4.85799e-08 -7.24665e-11 109.89 6.51108e-08 2.50393e-08 109.89 7.72884e-09 2.42322e-08 109.89 5.27399e-08 -1.70763e-08 109.89 2.91769e-08 3.07255e-08 109.89 6.95275e-08 -2.92837e-09 109.89 6.07411e-08 2.0993e-08 109.89 -4.46727e-09 -6.7027e-09 109.89 3.21008e-08 2.69136e-10 109.89 -1.10686e-09 -1.84033e-08 109.89 2.08427e-08 -1.5347e-08 109.89 7.88228e-09 -2.42579e-08 109.89 -5.98199e-10 -1.62287e-09 109.89 -7.56124e-09 -2.76903e-08 109.89 6.03977e-09 -8.03532e-09 109.89 8.42934e-09 -2.47593e-08 109.89 1.34041e-08 -1.71554e-08 109.89 -4.17699e-09 -7.79426e-09 109.89 3.19791e-08 -8.52675e-09 109.89 1.52685e-09 -1.96508e-08 109.89 2.65489e-08 -2.15574e-08 109.89 1.43502e-08 -2.71881e-08 109.89 -1.23964e-09 -3.78554e-09 109.89 4.16471e-09 -2.74127e-08 109.89 7.11391e-09 -1.20494e-08 109.89 1.789e-08 -2.76018e-08 109.89 1.86493e-08 -2.18522e-08 109.89 -2.82721e-09 -6.69995e-09 109.89 2.14369e-08 -2.02549e-08 109.89 5.28381e-09 -1.73258e-08 109.89 2.64289e-08 -2.70587e-08 109.89 1.96642e-08 -2.66425e-08 109.89 2.85136e-08 -7.07854e-09 109.89 -4.99403e-08 1.94507e-08 109.89 2.76239e-08 -5.22066e-09 109.89 -3.52336e-08 1.35763e-08 109.89 -5.24739e-10 2.76222e-09 109.89 -4.30077e-09 -5.49355e-09 109.89 2.94603e-08 4.52767e-09 109.89 -2.17851e-09 -1.67427e-08 109.89 1.61352e-08 -1.16036e-08 109.89 4.03191e-09 -2.16591e-08 109.89 1.65671e-08 -4.51868e-09 109.89 -2.74312e-08 1.90883e-08 109.89 1.73305e-08 -6.54762e-09 109.89 -2.22861e-08 9.48912e-09 109.89 -1.255e-09 -2.04135e-09 109.89 -2.57569e-09 -3.67089e-09 109.89 2.04907e-08 1.10274e-08 109.89 -1.68069e-09 -1.34766e-08 109.89 6.78692e-09 -4.95036e-09 109.89 -9.60382e-10 -1.64092e-08 109.89 4.1384e-09 -2.89451e-09 109.89 5.21827e-11 1.6723e-08 109.89 5.04914e-09 -9.44599e-09 109.89 -6.93581e-09 3.01912e-09 109.89 -2.81488e-09 -9.03711e-09 109.89 -1.70604e-08 -4.03261e-09 109.89 1.08836e-08 -3.65131e-08 109.89 -1.25331e-08 -3.67312e-08 109.89 -6.96816e-10 -5.75328e-08 109.89 -8.58632e-09 -6.18927e-08 109.89 1.41245e-08 -1.69848e-09 109.89 -8.65221e-09 1.63247e-08 109.89 1.12745e-08 1.24722e-08 109.89 1.71879e-09 2.40278e-08 109.89 8.5889e-09 2.42507e-08 109.89 -4.82998e-08 -1.3829e-08 109.89 2.43833e-08 -2.51353e-08 109.89 -4.02294e-08 -4.24043e-08 109.89 5.72586e-09 -4.87238e-08 109.89 -2.00543e-08 -5.97821e-08 109.89 -1.66094e-08 -6.91978e-09 109.89 7.18222e-09 1.55654e-08 109.89 -1.42299e-08 6.56533e-10 109.89 7.88174e-09 1.56176e-08 109.89 -2.21421e-09 1.02972e-08 109.89 -4.94834e-08 -1.45033e-08 109.89 2.36934e-08 -2.00472e-09 109.89 -4.1993e-08 -2.57526e-08 109.89 1.0006e-08 -1.66237e-08 109.89 -1.7523e-08 -2.81535e-08 109.89 1.9265e-08 -2.07422e-08 109.89 3.53512e-08 2.23345e-08 109.89 3.3907e-08 5.22975e-09 109.89 4.62275e-08 3.09272e-08 109.89 4.70112e-08 2.75476e-08 109.89 -1.6153e-08 1.0219e-08 109.89 -2.75299e-08 -5.35251e-09 109.89 -2.92529e-08 6.21125e-11 109.89 -3.86616e-08 -9.46875e-09 109.89 -4.05907e-08 -8.62138e-09 109.89 3.35023e-08 -8.9142e-09 109.89 2.75205e-08 2.30583e-08 109.89 4.52046e-08 1.63183e-08 109.89 3.9564e-08 3.42304e-08 109.89 4.87776e-08 3.51813e-08 109.89 3.24916e-09 1.42446e-08 109.89 -2.12446e-08 4.32884e-10 109.89 -6.94272e-09 1.07477e-08 109.89 -2.68436e-08 1.31127e-09 109.89 -2.12757e-08 5.26695e-09 109.89 2.75551e-08 6.9283e-09 109.89 2.94746e-09 1.36405e-08 109.89 2.84596e-08 1.95132e-08 109.89 8.07211e-09 2.1776e-08 109.89 1.97993e-08 2.62383e-08 109.89 1.37462e-08 -1.2924e-08 109.89 -6.70595e-09 4.40065e-09 109.89 2.79071e-08 -2.71499e-08 109.89 1.23978e-08 -1.89767e-08 109.89 2.90695e-08 -3.33368e-08 109.89 -1.9712e-08 8.64012e-09 109.89 2.02164e-09 -1.3071e-09 109.89 -2.77641e-08 1.48977e-08 109.89 -1.27611e-08 9.79424e-09 109.89 -2.6418e-08 1.70947e-08 109.89 1.71388e-09 -1.21222e-08 109.89 8.96854e-09 1.12922e-08 109.89 1.56162e-08 -2.26188e-08 109.89 2.0841e-08 -9.88981e-09 109.89 2.52355e-08 -2.48713e-08 109.89 -2.22882e-08 6.21244e-09 109.89 1.18747e-08 1.77293e-09 109.89 -2.51443e-08 9.71562e-09 109.89 -5.77629e-10 7.46313e-09 109.89 -1.69162e-08 1.11161e-08 109.89 -1.43341e-08 -3.40843e-09 109.89 1.74842e-08 9.27743e-09 109.89 -7.47565e-09 -6.65476e-09 109.89 1.57755e-08 6.1976e-10 109.89 5.65283e-09 -6.23221e-09 109.89 -1.78321e-08 2.02644e-08 109.89 -2.08117e-08 1.61893e-08 109.89 -3.1758e-08 4.5034e-08 109.89 -2.8507e-08 4.52033e-08 109.89 -3.592e-08 5.98991e-08 109.89 1.05393e-08 -8.70893e-09 109.89 1.66281e-08 -1.02652e-08 109.89 2.15605e-08 -2.03477e-08 109.89 2.16591e-08 -2.23518e-08 109.89 2.59182e-08 -2.78583e-08 109.89 1.88786e-10 2.51186e-08 109.89 -4.999e-08 5.1816e-09 109.89 -1.65984e-08 4.49944e-08 109.89 -4.85017e-08 3.40288e-08 109.89 -3.67449e-08 5.28092e-08 109.89 1.75294e-08 -2.05524e-09 109.89 -1.44172e-08 -1.05798e-08 109.89 2.03318e-08 -8.82197e-09 109.89 -5.84516e-09 -1.49991e-08 109.89 1.0223e-08 -1.50284e-08 109.89 1.58324e-08 1.47174e-08 109.89 -4.86672e-08 -5.77751e-09 109.89 5.88848e-09 2.12993e-08 109.89 -4.0021e-08 8.54015e-09 109.89 -1.75403e-08 2.05538e-08 109.89 2.88942e-08 -9.30839e-09 109.89 2.91723e-08 -2.35028e-08 109.89 4.6052e-08 -3.12401e-08 109.89 5.0012e-08 -3.8734e-08 109.89 5.85758e-08 -4.51516e-08 109.89 -2.39372e-08 1.31395e-08 109.89 -3.87639e-09 5.4867e-10 109.89 -2.71391e-08 1.27834e-08 109.89 -1.4126e-08 5.2376e-09 109.89 -2.42586e-08 1.01837e-08 109.89 1.63866e-08 1.14793e-09 109.89 3.0269e-08 -1.65175e-08 109.89 3.48205e-08 -1.60083e-08 109.89 4.64348e-08 -2.65967e-08 109.89 5.02552e-08 -2.8788e-08 109.89 -2.62931e-08 1.88062e-08 109.89 4.29735e-09 -1.90783e-09 109.89 -2.36436e-08 1.47612e-08 109.89 -3.25312e-09 1.70992e-09 109.89 -1.46786e-08 8.07973e-09 109.89 -9.32913e-09 1.44442e-08 109.89 1.97615e-08 -7.96383e-09 109.89 3.13617e-09 4.14682e-09 109.89 2.34418e-08 -1.00615e-08 109.89 1.78612e-08 -6.40214e-09 109.89 1.41285e-08 -1.30175e-08 109.89 2.25118e-09 -3.46072e-09 109.89 -8.49668e-09 3.39977e-09 109.89 -1.47164e-08 9.74689e-09 109.89 -2.23569e-08 1.46628e-08 109.89 1.94491e-09 -2.14355e-09 109.89 -1.27023e-08 4.33342e-09 109.89 9.06272e-09 -5.87506e-09 109.89 -8.49674e-10 -2.2844e-09 109.89 9.23942e-09 -6.90445e-09 109.89 1.79406e-08 -9.0962e-09 109.89 -7.02299e-09 -4.60444e-09 109.89 -2.40349e-09 2.61734e-09 109.89 -1.81978e-08 6.0285e-09 109.89 -1.89403e-08 1.04382e-08 109.89 7.57594e-09 -3.38848e-09 109.89 -1.75207e-08 3.80711e-09 109.89 9.57442e-09 -4.89772e-09 109.89 -7.79749e-09 -2.75662e-10 109.89 3.98263e-09 -4.09087e-09 109.89 1.53199e-08 -5.5065e-09 109.89 -1.61649e-08 -8.56244e-10 109.89 5.40656e-09 -1.08495e-09 109.89 -1.58642e-08 2.41735e-09 109.89 -7.96821e-09 2.7964e-09 109.89 -3.56975e-08 -2.77032e-08 109.89 2.81167e-09 5.62922e-09 109.89 -4.67785e-08 -4.24592e-08 109.89 -1.30419e-08 -2.00385e-08 109.89 -3.72848e-08 -4.24578e-08 109.89 -9.80704e-09 -7.18315e-09 109.89 2.34346e-09 2.29824e-09 109.89 -8.01564e-09 -7.58346e-09 109.89 5.94724e-10 -1.24432e-09 109.89 -3.69021e-09 -5.49066e-09 109.89 -5.08557e-08 -2.17498e-08 109.89 -3.08114e-08 8.82721e-09 109.89 -6.42398e-08 -3.12044e-08 109.89 -4.40775e-08 -1.06929e-08 109.89 -6.14657e-08 -2.8962e-08 109.89 -3.00426e-08 -1.23913e-08 109.89 -1.904e-08 6.46193e-09 109.89 -3.27845e-08 -1.31924e-08 109.89 -2.347e-08 -7.74649e-10 109.89 -3.00863e-08 -9.18644e-09 109.89 -5.00087e-08 -1.69009e-08 109.89 -3.9648e-08 9.62718e-09 109.89 -5.98632e-08 -2.07031e-08 109.89 -4.84987e-08 -3.09666e-09 109.89 -5.93081e-08 -1.64515e-08 109.89 8.44056e-09 2.06049e-08 109.89 1.89777e-08 5.32773e-09 109.89 1.16904e-08 4.07046e-08 109.89 8.02391e-09 2.90922e-08 109.89 7.47886e-09 4.69141e-08 109.89 2.5734e-09 4.13952e-09 109.89 -2.05864e-08 1.28859e-08 109.89 1.03363e-09 7.15824e-09 109.89 -1.38091e-08 1.21119e-08 109.89 -4.98872e-09 1.02476e-08 109.89 -2.5349e-08 1.99784e-08 109.89 5.85589e-09 1.20356e-08 109.89 -1.96728e-08 3.53417e-08 109.89 -8.24648e-09 2.92487e-08 109.89 -1.6465e-08 4.12274e-08 109.89 -1.74124e-08 1.02985e-08 109.89 -2.60873e-08 2.04907e-08 109.89 -1.67783e-08 1.64102e-08 109.89 -2.4176e-08 2.23991e-08 109.89 -1.98527e-08 2.16084e-08 109.89 -3.57973e-08 1.66306e-08 109.89 -1.54796e-08 2.02275e-08 109.89 -3.1476e-08 2.6935e-08 109.89 -2.36629e-08 2.8715e-08 109.89 -2.8754e-08 3.29847e-08 109.89 4.77952e-09 -8.74303e-09 109.89 3.1094e-08 -9.01184e-09 109.89 1.86639e-08 -2.05629e-08 109.89 3.35656e-08 -2.16994e-08 109.89 3.05488e-08 -2.7834e-08 109.89 8.78073e-09 -2.17025e-08 109.89 -1.81469e-08 4.14316e-09 109.89 6.95272e-09 -1.91076e-08 109.89 -1.492e-08 -1.84577e-09 109.89 -3.70465e-09 -1.13698e-08 109.89 -4.42881e-09 -4.77485e-09 109.89 3.65402e-08 -5.65e-09 109.89 7.34375e-09 -1.31628e-08 109.89 3.49533e-08 -1.44237e-08 109.89 2.39662e-08 -1.847e-08 109.89 -3.5101e-09 -3.43561e-09 109.89 -1.99008e-08 3.65537e-09 109.89 -1.22211e-08 2.29183e-09 109.89 -2.14699e-08 7.30275e-09 109.89 -1.96289e-08 7.36149e-09 109.89 -9.85483e-09 1.92098e-09 109.89 9.32928e-09 -2.14581e-10 109.89 -1.0781e-08 2.37487e-09 109.89 5.3056e-09 9.02496e-10 109.89 -4.00916e-09 2.07495e-09 109.89 2.64425e-08 1.49867e-08 109.89 -1.13391e-08 -5.51808e-09 109.89 1.05487e-08 3.0271e-09 109.89 -1.30392e-08 -8.72289e-09 109.89 -6.03048e-09 -6.99388e-09 109.89 -1.87099e-08 -1.95056e-09 109.89 1.30965e-08 5.37752e-09 109.89 -3.29498e-09 3.50143e-09 109.89 1.66177e-08 7.72034e-09 109.89 1.18395e-08 7.74519e-09 109.89 2.01703e-08 1.46901e-08 109.89 -4.51644e-09 -6.46327e-09 109.89 8.59084e-09 1.47468e-09 109.89 -5.07269e-09 -1.02724e-08 109.89 -1.5217e-09 -9.03813e-09 109.89 -1.48516e-08 6.90624e-10 109.89 1.37468e-08 2.55405e-09 109.89 -2.4141e-09 1.51157e-09 109.89 1.68874e-08 3.08856e-09 109.89 1.15144e-08 2.68225e-09 109.89 2.17063e-09 8.40911e-09 109.89 6.57621e-09 -3.03008e-09 109.89 2.85662e-09 5.36784e-10 109.89 8.06587e-09 -5.34548e-09 109.89 6.09151e-09 -5.17033e-09 109.89 -2.44207e-08 4.76431e-09 109.89 -2.51664e-08 -6.02738e-09 109.89 -3.63395e-08 -5.98033e-09 109.89 -3.73962e-08 -1.20303e-08 109.89 -4.34472e-08 -1.35833e-08 109.89 3.37862e-09 2.52975e-08 109.89 -1.43685e-08 -1.10623e-08 109.89 -5.42921e-09 2.10048e-08 109.89 -2.01107e-08 -3.70541e-09 109.89 -1.6795e-08 9.47237e-09 109.89 -2.52967e-08 -4.56183e-09 109.89 -1.23962e-08 -4.17394e-09 109.89 -3.04269e-08 -1.21538e-08 109.89 -2.04418e-08 -1.0789e-08 109.89 -2.89826e-08 -1.53384e-08 109.89 1.16645e-08 3.25423e-09 109.89 1.19337e-08 -9.60563e-10 109.89 1.85752e-08 6.63701e-09 109.89 1.92797e-08 3.29177e-09 109.89 2.28214e-08 7.04849e-09 109.89 -4.89882e-09 -9.17075e-09 109.89 1.01722e-08 6.01444e-10 109.89 1.99394e-09 -8.38219e-09 109.89 1.44116e-08 -1.6237e-09 109.89 1.129e-08 -5.38198e-09 109.89 3.19289e-08 1.44337e-08 109.89 -2.32029e-08 -1.58527e-08 109.89 4.02519e-08 2.33879e-08 109.89 1.77466e-09 4.27408e-09 109.89 3.02493e-08 2.18813e-08 109.89 -4.2499e-09 2.32463e-09 109.89 -1.00732e-08 -6.31535e-09 109.89 -4.08776e-09 1.68562e-09 109.89 -9.25859e-09 -4.16661e-09 109.89 -6.40665e-09 -8.25342e-10 109.89 2.53988e-08 9.91277e-09 109.89 -3.82692e-08 -1.35817e-08 109.89 3.02574e-08 1.61958e-08 109.89 -1.304e-08 7.96979e-10 109.89 1.69405e-08 1.42162e-08 109.89 1.18386e-09 1.87576e-09 109.89 -2.67803e-08 -1.07474e-08 109.89 8.509e-10 1.73182e-09 109.89 -1.88345e-08 -6.94845e-09 109.89 -6.89353e-09 -1.59718e-09 109.89 1.29692e-08 4.54315e-09 109.89 -4.1131e-08 -1.27811e-08 109.89 1.4145e-08 7.01755e-09 109.89 -2.25802e-08 -4.7984e-09 109.89 1.23424e-09 4.00488e-09 109.89 -5.63642e-09 3.33896e-09 109.89 -5.13784e-10 -2.78137e-09 109.89 -4.75795e-09 2.95733e-09 109.89 -2.6703e-09 -1.10725e-09 109.89 -4.06777e-09 1.2787e-09 109.89 3.97279e-09 -5.84639e-09 109.89 -1.47124e-08 -9.66063e-09 109.89 3.37161e-09 -7.00459e-09 109.89 -8.99379e-09 -9.21754e-09 109.89 -1.41413e-09 -8.30373e-09 109.89 -4.82993e-09 4.97656e-09 109.89 1.11813e-08 2.74758e-09 109.89 -3.02482e-09 5.37619e-09 109.89 6.57978e-09 4.06498e-09 109.89 1.00975e-09 5.19057e-09 109.89 5.32279e-09 6.86917e-10 109.89 -4.39835e-10 -8.97691e-11 109.89 6.02225e-09 1.43037e-09 109.89 2.41156e-09 1.23687e-09 109.89 5.19558e-09 1.90784e-09 109.89 8.47308e-10 5.05363e-09 109.89 1.24174e-08 5.43436e-09 109.89 2.70782e-09 6.35508e-09 109.89 1.01168e-08 6.90132e-09 109.89 6.29739e-09 7.39091e-09 109.89 9.49099e-09 4.32059e-09 109.89 -1.33652e-08 -4.58769e-10 109.89 1.1086e-08 6.08753e-09 109.89 -5.06995e-09 2.72074e-09 109.89 5.69559e-09 5.75616e-09 109.89 -1.75423e-08 3.53784e-09 109.89 2.02569e-08 -2.2244e-09 109.89 -2.46562e-08 -3.10564e-10 109.89 2.92239e-09 -5.61458e-09 109.89 -1.73741e-08 -4.99449e-09 109.89 1.32366e-08 9.02291e-09 109.89 -2.95026e-08 -5.23158e-09 109.89 8.0002e-09 7.96175e-09 109.89 -2.29446e-08 -2.68672e-09 109.89 -7.15969e-09 3.025e-09 109.89 -4.31596e-09 6.87865e-09 109.89 -9.69835e-09 -5.30686e-09 109.89 -1.72118e-08 1.25422e-09 109.89 -2.12798e-08 -8.981e-09 109.89 -2.59271e-08 -6.4691e-09 109.89 9.11523e-09 1.01505e-08 109.89 -3.22689e-08 -7.46752e-09 109.89 -3.41076e-09 5.53809e-09 109.89 -3.36935e-08 -8.28879e-09 109.89 -2.24367e-08 -2.9088e-09 109.89 7.13416e-09 3.44362e-09 109.89 -1.23655e-08 -1.43272e-09 109.89 6.89155e-09 5.63734e-09 109.89 -9.91526e-09 2.4236e-09 109.89 -9.24874e-10 5.67735e-09 109.89 -4.14884e-09 -2.71268e-09 109.89 1.27517e-08 1.92662e-09 109.89 -6.77652e-09 -9.28358e-09 109.89 1.07284e-08 -6.56967e-09 109.89 7.65206e-10 -1.20605e-08 109.89 1.96367e-08 6.11647e-09 109.89 -3.52673e-08 -2.99531e-09 109.89 1.25337e-08 5.5914e-09 109.89 -2.88398e-08 -5.85253e-10 109.89 -8.35348e-09 3.02041e-09 109.89 1.28956e-08 1.46597e-10 109.89 -2.28128e-08 -2.48e-09 109.89 2.65225e-09 -8.4654e-09 109.89 -1.92256e-08 -1.07142e-08 109.89 -1.00644e-08 -1.41794e-08 109.89 2.43695e-08 4.67532e-09 109.89 -4.50843e-08 -4.37186e-09 109.89 1.16737e-08 -1.20436e-09 109.89 -3.74885e-08 -7.59621e-09 109.89 -1.42952e-08 -6.87021e-09 109.89 -1.75478e-08 -9.96911e-09 109.89 1.16167e-08 6.60245e-09 109.89 -1.28807e-08 -8.58128e-09 109.89 8.57576e-09 3.13263e-09 109.89 -1.71249e-09 -3.29115e-09 109.89 -6.22227e-09 9.30683e-10 109.89 -4.54115e-09 -1.18121e-09 109.89 -1.23422e-08 -2.29484e-09 109.89 -9.89463e-09 -3.79249e-09 109.89 -1.42608e-08 -4.64794e-09 109.89 3.25145e-09 7.82478e-10 109.89 -1.09664e-09 -2.51845e-10 109.89 4.42088e-09 1.48459e-09 109.89 8.49795e-10 8.77286e-10 109.89 3.49102e-09 1.68517e-09 109.89 9.85266e-09 5.87727e-09 109.89 -1.54112e-08 -5.01501e-09 109.89 5.91996e-10 2.16269e-09 109.89 -1.70404e-08 -5.62206e-09 109.89 -1.12177e-08 -2.92285e-09 109.89 1.66946e-08 7.64878e-09 109.89 -1.47955e-08 -5.59352e-09 109.89 1.08111e-08 5.81425e-09 109.89 -1.2245e-08 -3.51641e-09 109.89 -1.63314e-09 1.21122e-09 109.89 -4.45159e-09 -7.93436e-09 109.89 1.02264e-08 1.09938e-08 109.89 -1.48186e-09 -5.97291e-09 109.89 1.01258e-08 8.47683e-09 109.89 5.12869e-09 1.13728e-09 109.89 -4.41481e-10 1.52477e-10 109.89 1.84059e-09 -1.16999e-09 109.89 -4.88305e-09 -1.98794e-09 109.89 -3.6566e-09 -3.3843e-09 109.89 -6.94554e-09 -3.86712e-09 109.89 2.24847e-09 -8.65616e-10 109.89 1.11267e-09 2.0783e-10 109.89 5.58221e-09 -5.75582e-10 109.89 4.25121e-09 3.64622e-10 109.89 6.6487e-09 1.77107e-11 109.89 4.04097e-09 3.75137e-09 109.89 -4.65027e-09 -6.60507e-09 109.89 -2.96986e-10 8.11109e-10 109.89 -8.04284e-09 -7.35623e-09 109.89 -6.27767e-09 -4.28856e-09 109.89 6.19246e-09 4.351e-09 109.89 -6.03719e-09 -7.62705e-09 109.89 5.82214e-09 2.35315e-09 109.89 -4.6985e-09 -6.79288e-09 109.89 7.86116e-10 -2.55488e-09 109.89 -7.99567e-09 -8.1014e-09 109.89 -4.83973e-09 -7.34003e-09 109.89 9.51042e-10 3.24839e-09 109.89 -2.8787e-09 -3.23234e-09 109.89 1.91683e-09 4.10337e-09 109.89 -1.50987e-08 -2.9966e-09 109.89 2.57243e-09 1.31266e-09 109.89 -4.9617e-09 -1.78099e-09 109.89 5.90183e-09 2.14785e-09 109.89 4.11719e-09 7.5104e-10 109.89 1.13748e-08 -6.78286e-10 109.89 -2.72496e-10 -8.92887e-10 109.89 2.39204e-09 9.66498e-10 109.89 -3.73662e-09 -3.6729e-10 109.89 -4.02706e-09 8.74055e-10 109.89 -3.97174e-09 -4.51467e-10 109.89 5.69413e-09 4.60134e-09 109.89 -4.37663e-09 -2.86452e-09 109.89 5.58822e-09 3.82114e-09 109.89 5.14275e-10 -3.4451e-10 109.89 1.20368e-08 2.16028e-09 109.89 4.80295e-09 4.50786e-09 109.89 -4.36032e-10 -1.86703e-09 109.89 5.99538e-10 2.96307e-09 109.89 -4.36386e-09 -9.16001e-10 109.89 -1.85257e-08 -3.90531e-09 109.89 -3.10764e-10 -1.34491e-09 109.89 -4.06231e-09 -5.75269e-10 109.89 4.3825e-09 4.70079e-10 109.89 5.32042e-09 1.33279e-09 109.89 2.89113e-08 6.13234e-09 109.89 2.49263e-09 -7.15848e-09 109.89 6.50424e-10 5.08089e-09 109.89 -1.12828e-08 -6.21328e-09 109.89 -1.66826e-08 -6.07429e-10 109.89 -1.78872e-08 -3.48206e-09 109.89 -4.9109e-09 -5.7464e-09 109.89 -1.7254e-09 1.83767e-09 109.89 -1.08977e-10 -2.88707e-09 109.89 4.70468e-09 1.65631e-09 109.89 1.61477e-08 4.92746e-09 109.89 -4.07075e-09 -9.43147e-09 109.89 2.36221e-09 5.78307e-09 109.89 -1.20164e-08 -7.83439e-09 109.89 -1.07155e-08 -3.88354e-10 109.89 -4.18639e-09 5.06231e-10 109.89 -7.52802e-09 -9.40625e-09 109.89 1.41706e-09 4.65812e-09 109.89 -7.47842e-09 -6.71499e-09 109.89 -1.54305e-09 7.82691e-10 109.89 1.6544e-08 -4.74077e-09 109.89 -1.78406e-08 2.74389e-09 109.89 2.50636e-08 -2.7636e-09 109.89 -2.16311e-09 2.94168e-09 109.89 1.78358e-08 7.01097e-10 109.89 2.08064e-09 1.41724e-09 109.89 1.1886e-09 -7.85735e-09 109.89 -7.41949e-11 -1.30595e-08 109.89 -3.1269e-09 -2.33064e-08 109.89 -3.62524e-09 -2.63609e-08 109.89 2.30844e-08 -2.60007e-09 109.89 -2.90869e-08 -7.6359e-10 109.89 2.80669e-08 -4.0057e-09 109.89 -1.40195e-08 -3.29079e-09 109.89 1.21757e-08 -4.72221e-09 109.89 1.40354e-08 3.84532e-10 109.89 -1.73026e-08 -5.66587e-09 109.89 1.19362e-08 -1.19083e-08 109.89 -1.52145e-08 -1.94572e-08 109.89 -1.99434e-09 -2.28324e-08 109.89 2.36477e-08 -8.04878e-10 109.89 -3.13742e-08 -3.57382e-09 109.89 2.414e-08 -7.98341e-09 109.89 -2.11833e-08 -1.20347e-08 109.89 4.00265e-09 -1.43028e-08 109.89 -2.46265e-08 -3.55229e-10 109.89 2.03517e-08 -6.73171e-09 109.89 -3.81507e-08 -2.82141e-10 109.89 -1.13065e-10 -5.01827e-09 109.89 -2.82586e-08 -2.03926e-09 109.89 -3.11201e-09 4.66267e-10 109.89 -4.97712e-09 2.13057e-09 109.89 -4.95558e-09 9.39951e-09 109.89 -5.70745e-09 1.24214e-08 109.89 -5.9036e-09 1.61556e-08 109.89 -1.91774e-08 -2.3144e-09 109.89 9.58168e-09 -2.03979e-09 109.89 -3.25767e-08 1.08792e-09 109.89 -6.76918e-09 1.73144e-09 109.89 -2.76156e-08 3.46988e-09 109.89 -6.21651e-09 -1.56984e-09 109.89 -4.09076e-09 3.18144e-09 109.89 -1.09484e-08 7.10802e-09 109.89 -7.33088e-09 1.21545e-08 109.89 -1.11464e-08 1.44755e-08 109.89 -1.20577e-08 -3.03075e-09 109.89 -3.55083e-12 2.12443e-09 109.89 -2.18899e-08 3.83065e-09 109.89 -9.34042e-09 8.67739e-09 109.89 -2.06555e-08 9.9818e-09 109.89 -7.22489e-11 -1.8336e-08 109.89 -3.30977e-09 9.96229e-09 109.89 2.31377e-09 -6.35332e-09 109.89 1.89154e-10 1.68044e-08 109.89 2.9072e-09 1.03006e-08 109.89 -4.99183e-08 1.97057e-09 109.89 -1.26429e-08 1.49999e-09 109.89 4.17284e-09 2.1371e-10 109.89 1.39142e-08 1.32385e-09 109.89 3.10639e-08 2.08615e-10 109.89 -1.52377e-08 -1.70755e-08 109.89 -1.18413e-08 1.06572e-08 109.89 5.54963e-09 -6.39222e-09 109.89 2.96917e-10 1.66355e-08 109.89 1.19675e-08 9.59682e-09 109.89 -4.7613e-08 -3.05552e-09 109.89 -1.65105e-08 5.45637e-09 109.89 5.99791e-09 -2.04044e-09 109.89 1.0187e-08 6.56193e-09 109.89 3.00506e-08 2.78675e-09 109.89 -3.49065e-08 -1.11036e-08 109.89 -1.75891e-08 9.33198e-09 109.89 7.16551e-09 -4.8468e-09 109.89 4.23921e-09 1.29822e-08 109.89 2.32033e-08 6.70082e-09 109.89 1.17701e-09 4.17804e-09 109.89 -2.69241e-09 1.88164e-09 109.89 1.28944e-09 6.7907e-09 109.89 -4.05471e-09 5.59108e-09 109.89 -1.72238e-09 7.88185e-09 109.89 -3.58459e-10 4.04919e-09 109.89 -1.36328e-09 3.70006e-10 109.89 -3.88463e-10 4.56328e-09 109.89 5.92321e-11 2.46304e-09 109.89 2.2109e-10 4.22993e-09 109.89 9.42215e-10 4.00149e-09 109.89 -2.39538e-09 1.96629e-09 109.89 1.09864e-09 5.62676e-09 109.89 -2.95216e-09 4.49275e-09 109.89 -1.03342e-09 6.17237e-09 109.89 2.68922e-10 4.10344e-09 109.89 -2.73425e-09 3.72169e-10 109.89 8.42453e-11 4.38532e-09 109.89 -1.32668e-09 2.19812e-09 109.89 -2.81583e-10 3.86969e-09 109.89 7.05765e-10 4.01176e-09 109.89 -2.83192e-09 1.21525e-09 109.89 6.67002e-10 4.63475e-09 109.89 -2.1999e-09 2.98607e-09 109.89 -5.99844e-10 4.458e-09 109.89 6.58872e-09 9.05693e-09 109.89 -1.4677e-09 -3.52906e-09 109.89 3.31266e-09 1.02492e-09 109.89 -8.9716e-10 -9.2469e-09 109.89 4.33921e-10 -7.84179e-09 109.89 8.09658e-09 4.16771e-09 109.89 -9.98313e-12 2.12185e-09 109.89 -1.41655e-09 -3.81185e-10 109.89 -3.17557e-09 -1.22481e-09 109.89 -5.74385e-09 -2.94481e-09 109.89 1.11726e-08 8.70455e-09 109.89 -1.00437e-09 -1.54645e-09 109.89 2.77743e-09 2.56108e-10 109.89 -2.79991e-09 -7.63166e-09 109.89 -2.81361e-09 -7.63369e-09 109.89 1.04956e-08 5.84238e-09 109.89 -5.00364e-11 1.60437e-09 109.89 -5.20942e-10 -3.30076e-10 109.89 -3.60488e-09 -2.75168e-09 109.89 -6.03234e-09 -4.39864e-09 109.89 1.27851e-08 7.6314e-09 109.89 -4.1635e-10 4.31314e-10 109.89 1.24112e-09 -2.39112e-10 109.89 -3.85677e-09 -5.17387e-09 109.89 -5.40177e-09 -6.3657e-09 109.89 9.29822e-09 -1.72106e-09 109.89 -3.96129e-09 1.63593e-08 109.89 1.21173e-08 3.17232e-09 109.89 1.83074e-09 1.47464e-08 109.89 9.33034e-09 9.83521e-09 109.89 1.64885e-08 -1.279e-08 109.89 4.72963e-09 5.7863e-09 109.89 2.52156e-08 -1.88876e-08 109.89 1.1055e-08 -7.08307e-09 109.89 2.23873e-08 -1.81767e-08 109.89 1.29667e-08 -4.18773e-09 109.89 -5.73829e-09 1.85363e-08 109.89 1.63174e-08 -2.5639e-10 109.89 8.98456e-10 1.41869e-08 109.89 1.13648e-08 6.82604e-09 109.89 1.73818e-08 -1.11587e-08 109.89 2.65606e-09 1.24655e-08 109.89 2.47032e-08 -1.42061e-08 109.89 8.58336e-09 7.23043e-10 109.89 2.03838e-08 -1.08019e-08 109.89 1.64264e-08 -7.89404e-09 109.89 -2.77618e-09 1.79584e-08 109.89 2.14973e-08 -6.85972e-09 109.89 3.68004e-09 9.48713e-09 109.89 1.58136e-08 -7.44499e-10 109.89 -3.27088e-09 -1.73447e-09 109.89 -4.17572e-10 3.32133e-09 109.89 7.92227e-10 -1.14672e-09 109.89 8.19e-10 2.03312e-09 109.89 2.24198e-09 2.5087e-10 109.89 2.9637e-09 5.76538e-09 109.89 4.49432e-09 -3.12379e-09 109.89 -9.46756e-10 5.95286e-10 109.89 2.80849e-10 -5.81534e-09 109.89 -2.54379e-09 -4.74238e-09 109.89 -3.78043e-09 -1.88772e-10 109.89 -8.35371e-10 2.55086e-09 109.89 1.33292e-09 -7.99702e-10 109.89 5.6977e-10 7.89257e-10 109.89 2.71814e-09 -6.53849e-10 109.89 -9.86233e-11 5.21624e-09 109.89 1.91599e-09 -1.35199e-09 109.89 3.12639e-10 3.55577e-10 109.89 4.89706e-11 -4.35952e-09 109.89 -2.11315e-10 -4.1419e-09 109.89 -2.91618e-09 2.75828e-09 109.89 -2.64976e-10 8.77165e-10 109.89 1.31195e-09 -1.97801e-10 109.89 1.87384e-10 -1.7114e-09 109.89 2.02127e-09 -2.46619e-09 109.89 2.51761e-09 -1.10501e-08 109.89 -5.29699e-08 9.89202e-09 109.89 5.42081e-09 -2.51375e-08 109.89 -2.74347e-08 -1.44392e-08 109.89 -3.28918e-09 -3.0183e-08 109.89 -1.7825e-09 -5.45463e-09 109.89 1.50301e-08 2.8816e-08 109.89 -4.53923e-09 -1.46064e-08 109.89 6.30392e-09 3.6956e-09 109.89 -2.27408e-09 -1.47401e-08 109.89 1.04188e-09 -9.29466e-09 109.89 -4.56684e-08 1.92728e-08 109.89 2.87365e-09 -2.25997e-08 109.89 -2.38169e-08 -7.85647e-09 109.89 -4.08527e-09 -2.61609e-08 109.89 -1.20463e-09 -5.66866e-09 109.89 1.75667e-09 3.08126e-08 109.89 -2.45041e-09 -1.57226e-08 109.89 6.59615e-10 3.57825e-09 109.89 -1.5834e-09 -1.61635e-08 109.89 -3.15168e-10 -7.06434e-09 109.89 -2.36469e-08 2.82185e-08 109.89 1.00158e-10 -1.87768e-08 109.89 -1.21552e-08 -3.38982e-10 109.89 -2.85777e-09 -2.0446e-08 109.89 2.30363e-08 -1.04637e-08 109.89 6.82306e-09 -7.48856e-09 109.89 -4.03099e-09 -9.56541e-11 109.89 -8.24452e-09 1.31619e-09 109.89 -1.76923e-08 5.83343e-09 109.89 6.38533e-09 -1.39314e-08 109.89 -1.08558e-09 -2.14989e-09 109.89 -4.30865e-09 2.82807e-09 109.89 -8.04702e-09 1.10836e-08 109.89 -1.0979e-08 1.50758e-08 109.89 2.18107e-08 -1.26212e-08 109.89 4.6767e-09 -6.76699e-09 109.89 -3.9906e-09 5.34333e-11 109.89 -9.72161e-09 3.73358e-09 109.89 -1.78654e-08 8.19086e-09 109.89 1.06375e-08 -1.45288e-08 109.89 -1.25922e-10 -3.60773e-09 109.89 -4.62616e-09 1.87951e-09 109.89 -9.37935e-09 9.55875e-09 109.89 -1.3686e-08 1.37272e-08 109.89 1.70797e-08 -1.43336e-08 109.89 1.94612e-09 -5.38838e-09 109.89 -4.37717e-09 7.45077e-10 109.89 -1.03314e-08 6.8921e-09 109.89 -1.6574e-08 1.12352e-08 109.89 -8.16082e-09 -8.09217e-09 109.89 2.25967e-08 7.06234e-09 109.89 -1.47157e-08 -1.40064e-08 109.89 5.70828e-09 -4.87058e-09 109.89 -1.08908e-08 -1.43014e-08 109.89 -5.44608e-09 -2.33873e-09 109.89 -5.14176e-09 2.1981e-09 109.89 -8.67422e-09 -1.83389e-09 109.89 -7.17829e-09 1.43874e-09 109.89 -9.35456e-09 -2.67078e-10 109.89 -8.87582e-09 -7.48418e-09 109.89 1.81345e-08 4.44468e-09 109.89 -1.46305e-08 -1.20911e-08 109.89 4.19928e-09 -4.61616e-09 109.89 -1.05752e-08 -1.20813e-08 109.89 -7.3257e-09 -3.6717e-09 109.89 -6.0732e-10 1.13814e-09 109.89 -1.11483e-08 -4.11399e-09 109.89 -4.88808e-09 -6.10845e-10 109.89 -1.02157e-08 -2.96217e-09 109.89 -8.80757e-09 -5.77546e-09 109.89 8.76509e-09 1.79293e-09 109.89 -1.35404e-08 -8.20141e-09 109.89 -1.41221e-10 -3.09907e-09 109.89 -1.05464e-08 -7.64891e-09 109.89 -6.34668e-09 -8.282e-09 109.89 1.27147e-09 8.98337e-10 109.89 2.27396e-09 3.505e-09 109.89 6.24743e-09 9.73062e-09 109.89 7.95771e-09 1.22155e-08 109.89 -1.30628e-08 -8.32626e-09 109.89 -1.21148e-09 -3.2294e-09 109.89 2.78956e-09 7.68772e-10 109.89 8.42792e-09 3.84092e-09 109.89 1.25375e-08 6.70299e-09 109.89 -8.2623e-09 -8.31638e-09 109.89 1.58781e-09 3.45004e-11 109.89 2.36912e-09 2.85088e-09 109.89 8.02856e-09 8.48991e-09 109.89 9.84038e-09 1.10008e-08 109.89 -1.25203e-08 -8.73823e-09 109.89 2.64322e-11 -2.51179e-09 109.89 2.56483e-09 1.21948e-09 109.89 9.31561e-09 5.15924e-09 109.89 1.25677e-08 7.98416e-09 109.89 -1.07665e-08 -8.64727e-09 109.89 1.22986e-09 -1.2782e-09 109.89 2.43205e-09 1.97873e-09 109.89 9.40196e-09 6.8447e-09 109.89 1.17279e-08 9.5086e-09 109.89 -2.29803e-08 -1.43561e-10 109.89 9.90916e-09 -1.50747e-08 109.89 -1.90855e-08 -4.53504e-09 109.89 4.60247e-09 -1.50728e-08 109.89 -7.62431e-09 -1.10035e-08 109.89 3.67103e-09 -2.90876e-09 109.89 -1.80654e-09 -6.23176e-10 109.89 5.7526e-09 -5.82126e-09 109.89 4.6593e-09 -4.17209e-09 109.89 7.52469e-09 -6.75368e-09 109.89 -1.23076e-09 9.56518e-10 109.89 1.00246e-09 6.36247e-12 109.89 -2.33207e-09 1.93747e-09 109.89 -2.1618e-09 1.14096e-09 109.89 -3.40554e-09 2.11361e-09 109.89 2.16955e-08 -1.17084e-09 109.89 -9.18767e-09 6.39826e-09 109.89 1.97735e-08 -1.8405e-09 109.89 -6.24304e-10 3.45752e-09 109.89 1.13768e-08 -1.6864e-10 109.89 2.12493e-08 6.78367e-10 109.89 -8.61162e-09 9.30481e-09 109.89 1.72448e-08 2.93444e-09 109.89 -4.72426e-09 8.88169e-09 109.89 6.22642e-09 6.41116e-09 109.89 1.11087e-08 7.73821e-09 109.89 -2.29105e-08 1.77673e-09 109.89 6.14865e-09 8.8276e-09 109.89 -1.85974e-08 4.96981e-09 109.89 -6.40463e-09 8.06858e-09 109.89 -1.52581e-09 7.1001e-10 109.89 2.79674e-09 -7.63264e-10 109.89 2.03787e-09 3.43195e-09 109.89 2.37333e-09 2.52626e-09 109.89 3.05201e-09 4.61388e-09 109.89 -1.90123e-09 -9.65642e-10 109.89 -8.02515e-10 1.79708e-10 109.89 -2.47587e-09 -1.90014e-09 109.89 -7.5908e-10 -1.09967e-09 109.89 -1.75974e-09 -2.10148e-09 109.89 -1.24707e-08 -3.80354e-09 109.89 2.10881e-08 -2.08162e-10 109.89 -5.07111e-09 -1.56731e-09 109.89 1.71447e-08 9.19258e-10 109.89 6.97842e-09 5.88925e-10 109.89 -1.3818e-08 -6.03808e-09 109.89 2.13353e-08 -2.98157e-10 109.89 -8.11388e-09 -6.07255e-09 109.89 1.72362e-08 -2.20289e-09 109.89 5.00414e-09 -4.66742e-09 109.89 8.71998e-09 1.0913e-08 109.89 -1.81949e-08 -9.59849e-09 109.89 3.33531e-09 8.24456e-09 109.89 -1.59272e-08 -6.5933e-09 109.89 -7.15364e-09 9.08187e-10 109.89 5.52529e-09 5.93548e-10 109.89 -1.565e-09 2.91867e-09 109.89 1.04819e-08 3.62064e-09 109.89 5.9522e-09 5.50771e-09 109.89 1.16253e-08 6.10589e-09 109.89 -7.65127e-10 -3.43867e-11 109.89 1.97219e-09 2.83009e-10 109.89 -2.98652e-09 -4.64844e-10 109.89 -5.24864e-10 -4.16819e-10 109.89 -3.04341e-09 -7.5201e-10 109.89 -1.1096e-09 -5.01547e-09 109.89 1.4223e-08 7.48062e-09 109.89 6.4566e-09 -9.89971e-10 109.89 1.83991e-08 8.26733e-09 109.89 1.56476e-08 4.9646e-09 109.89 -5.3481e-09 -7.04593e-09 109.89 1.79917e-08 7.85809e-09 109.89 -1.09587e-09 -4.36431e-09 109.89 1.66026e-08 6.39026e-09 109.89 8.54385e-09 1.35035e-09 109.89 8.15482e-09 6.5095e-09 109.89 3.44152e-08 -1.08255e-08 109.89 -1.39778e-08 1.03477e-08 109.89 -5.08724e-09 -1.42891e-09 109.89 -2.64278e-08 8.09557e-09 109.89 4.2081e-09 4.67645e-09 109.89 7.35359e-09 2.91646e-08 109.89 -2.51298e-09 -1.77478e-08 109.89 -2.83497e-09 -1.02223e-09 109.89 -7.31994e-09 -2.38043e-08 109.89 1.50613e-08 5.94354e-09 109.89 3.78699e-08 -4.156e-09 109.89 -1.07122e-08 5.32556e-09 109.89 -8.26859e-09 -9.42338e-10 109.89 -2.91937e-08 2.90289e-09 109.89 1.2665e-08 5.36417e-09 109.89 1.89659e-08 2.41428e-08 109.89 -2.86657e-09 -1.38583e-08 109.89 -6.99536e-09 -8.9448e-10 109.89 -1.63031e-08 -1.95139e-08 109.89 1.80395e-08 5.68798e-09 109.89 3.25284e-08 1.04426e-08 109.89 -6.01294e-09 -4.57148e-09 109.89 -9.62704e-09 -7.52895e-10 109.89 -2.59574e-08 -8.55129e-09 109.89 2.02876e-10 -2.80266e-09 109.89 -6.08861e-09 -1.20689e-10 109.89 -8.62555e-09 6.71595e-10 109.89 -1.60926e-08 2.44588e-09 109.89 -1.75209e-08 3.21723e-09 109.89 1.0057e-09 -3.81427e-09 109.89 1.55099e-08 2.28481e-09 109.89 1.64644e-08 -1.08515e-08 109.89 3.03169e-08 -5.84164e-09 109.89 3.16616e-08 -1.25058e-08 109.89 1.23589e-08 -8.56332e-09 109.89 -9.52725e-09 2.51675e-09 109.89 4.6609e-09 -6.12768e-09 109.89 -1.46895e-08 1.85115e-09 109.89 -8.5424e-09 -1.65163e-09 109.89 1.59292e-08 -7.33115e-09 109.89 4.73888e-09 2.3129e-09 109.89 2.50222e-08 -1.43236e-08 109.89 1.78506e-08 -6.68859e-09 109.89 2.75036e-08 -1.48922e-08 109.89 2.1575e-08 -1.05063e-08 109.89 -6.29276e-09 3.15432e-09 109.89 2.08271e-08 -1.30377e-08 109.89 -1.45513e-09 -2.79833e-09 109.89 1.07973e-08 -1.02438e-08 109.89 -1.00776e-08 -2.12627e-09 109.89 2.14693e-08 2.82713e-09 109.89 8.02467e-09 -7.55179e-09 109.89 3.53742e-08 -3.55018e-09 109.89 3.0446e-08 -8.78902e-09 109.89 -1.86464e-08 -1.34705e-08 109.89 7.97355e-09 2.12079e-08 109.89 -7.79646e-09 2.48712e-08 109.89 1.08601e-08 4.46174e-08 109.89 5.3495e-09 5.16601e-08 109.89 -2.77794e-08 -1.63075e-09 109.89 2.91247e-08 5.88567e-09 109.89 -6.24266e-09 3.46435e-11 109.89 4.056e-08 5.08414e-09 109.89 2.61741e-08 2.7951e-09 109.89 -3.44618e-08 -1.12516e-08 109.89 2.0415e-08 1.94188e-08 109.89 -1.71145e-08 2.12315e-08 109.89 2.45648e-08 3.90892e-08 109.89 9.65156e-09 4.44538e-08 109.89 -4.02183e-08 -5.69009e-09 109.89 3.02464e-08 1.29945e-08 109.89 -1.80476e-08 1.16892e-08 109.89 3.77337e-08 2.29179e-08 109.89 1.79738e-08 2.47889e-08 109.89 -7.04429e-09 -1.35327e-08 109.89 1.81884e-10 2.0799e-08 109.89 -5.05955e-10 2.53983e-08 109.89 2.75854e-09 4.46287e-08 109.89 3.68338e-09 5.21998e-08 109.89 2.77835e-08 5.66491e-09 109.89 -3.0948e-08 -6.43709e-09 109.89 -6.34053e-09 -5.3506e-09 109.89 -5.03307e-08 -1.32875e-08 109.89 -4.29678e-08 -1.42316e-08 109.89 1.21342e-08 -1.14771e-08 109.89 -1.34558e-08 1.75562e-08 109.89 8.72861e-09 2.3409e-08 109.89 -1.34963e-08 3.89969e-08 109.89 -3.26834e-09 4.66139e-08 109.89 3.29306e-08 2.06831e-09 109.89 -3.3059e-08 -8.33451e-10 109.89 2.33609e-09 3.06487e-09 109.89 -4.84025e-08 -1.5122e-10 109.89 -3.55885e-08 1.88631e-09 109.89 2.91483e-08 -5.14426e-09 109.89 -2.75442e-08 9.01572e-09 109.89 1.03977e-08 1.50087e-08 109.89 -3.4856e-08 2.14946e-08 109.89 -1.93248e-08 2.71582e-08 109.89 2.30074e-08 6.72448e-09 109.89 -2.79301e-08 -8.53145e-09 109.89 -1.09084e-08 -9.21171e-09 109.89 -4.8401e-08 -1.85203e-08 109.89 -4.45272e-08 -2.09774e-08 109.89 2.00921e-09 1.3455e-08 109.89 6.25844e-09 -1.31776e-08 109.89 6.66379e-09 -9.63837e-09 109.89 1.18154e-08 -2.43063e-08 109.89 1.20309e-08 -2.63096e-08 109.89 1.52555e-08 8.56865e-09 109.89 -2.07452e-08 -1.15439e-08 109.89 -1.45484e-08 -1.42214e-08 109.89 -3.989e-08 -2.55916e-08 109.89 -4.06007e-08 -2.99903e-08 109.89 4.02302e-09 1.2686e-08 109.89 1.24952e-09 -1.39671e-08 109.89 4.10097e-10 -1.33379e-08 109.89 6.09193e-10 -2.77501e-08 109.89 -6.48033e-10 -3.1412e-08 109.89 8.06869e-09 1.0932e-08 109.89 -9.18498e-09 -1.37987e-08 109.89 -9.80645e-09 -1.61549e-08 109.89 -2.04324e-08 -2.95493e-08 109.89 -2.30746e-08 -3.45601e-08 109.89 -8.43844e-09 -2.77807e-09 109.89 3.66347e-09 1.69277e-09 109.89 -3.0913e-09 1.37015e-09 109.89 4.57377e-09 3.57423e-09 109.89 2.44559e-09 4.11807e-09 109.89 9.25083e-09 3.58624e-09 109.89 -3.1864e-09 -7.0796e-10 109.89 2.58184e-09 7.81963e-10 109.89 -5.12647e-09 -1.55423e-09 109.89 -3.62079e-09 -1.38191e-09 109.89 -3.5559e-09 -3.40094e-09 109.89 1.08755e-09 2.11667e-09 109.89 -2.01022e-09 1.26805e-09 109.89 3.87906e-10 4.09958e-09 109.89 -5.83817e-10 4.49764e-09 109.89 9.85806e-09 1.98415e-09 109.89 -3.70196e-09 -3.7122e-10 109.89 2.77533e-09 9.65814e-10 109.89 -6.12433e-09 -4.79372e-10 109.89 -4.26963e-09 -6.51606e-11 109.89 4.58765e-09 -1.3448e-09 109.89 -2.13706e-09 1.09961e-09 109.89 6.98342e-10 1.13906e-09 109.89 -4.26988e-09 2.27476e-09 109.89 -3.43223e-09 2.70331e-09 109.89 9.17028e-10 1.36323e-08 109.89 7.82372e-09 -1.25372e-08 109.89 8.65607e-09 -7.48008e-09 109.89 1.55715e-08 -2.21103e-08 109.89 1.63437e-08 -2.3165e-08 109.89 -1.01605e-08 -1.57809e-09 109.89 4.96757e-09 9.46276e-10 109.89 -3.08187e-09 1.41696e-09 109.89 6.91583e-09 2.48842e-09 109.89 4.37734e-09 3.19269e-09 109.89 -2.16796e-09 1.23934e-08 109.89 9.54726e-09 -1.04312e-08 109.89 9.37373e-09 -3.9587e-09 109.89 1.92869e-08 -1.70291e-08 109.89 2.01391e-08 -1.67501e-08 109.89 -1.08643e-08 1.84415e-09 109.89 7.28423e-09 -1.42114e-09 109.89 -7.58606e-10 1.11535e-09 109.89 1.19114e-08 -1.13903e-09 109.89 9.59435e-09 -1.29216e-10 109.89 -7.49473e-09 7.73777e-09 109.89 9.52694e-09 -6.01356e-09 109.89 5.20969e-09 -5.454e-10 109.89 1.80173e-08 -8.711e-09 109.89 1.73961e-08 -7.61758e-09 109.89 2.45367e-09 4.22885e-10 109.89 -2.53978e-10 -2.71284e-10 109.89 3.27874e-10 -1.26534e-09 109.89 -1.54804e-09 -1.18582e-09 109.89 -1.54238e-09 -1.93559e-09 109.89 -1.33233e-09 -5.88465e-11 109.89 -1.60878e-09 3.3741e-10 109.89 1.55175e-09 8.23505e-10 109.89 1.57439e-09 8.28525e-10 109.89 3.21844e-09 1.20034e-09 109.89 1.49716e-09 7.33561e-10 109.89 -3.33107e-09 -1.44332e-10 109.89 1.92305e-09 -1.19733e-09 109.89 -7.91387e-10 -1.35774e-09 109.89 1.37575e-09 -2.13495e-09 109.89 -1.31725e-09 -2.02146e-10 109.89 -3.4431e-09 2.50918e-10 109.89 2.39788e-09 5.05667e-11 109.89 1.56464e-09 2.50255e-10 109.89 4.36171e-09 2.19207e-10 109.89 -1.55416e-10 3.23349e-10 109.89 -4.74127e-09 6.45756e-11 109.89 2.833e-09 -7.65413e-10 109.89 5.81165e-10 -7.64801e-10 109.89 3.97545e-09 -1.28797e-09 109.89 7.05514e-09 3.84118e-09 109.89 -2.28561e-09 -4.62634e-10 109.89 1.75195e-09 6.66632e-10 109.89 -3.73428e-09 -1.52958e-09 109.89 -2.83157e-09 -1.58783e-09 109.89 7.68199e-09 2.46792e-09 109.89 -5.03726e-09 -1.64765e-09 109.89 -5.60354e-10 4.08436e-09 109.89 -9.04617e-09 1.25418e-10 109.89 -8.14939e-09 3.02557e-09 109.89 7.47979e-10 3.15972e-09 109.89 2.09908e-10 4.14416e-10 109.89 1.97847e-10 5.80198e-10 109.89 4.55718e-10 -5.71468e-10 109.89 2.46798e-10 -9.66897e-10 109.89 -5.44217e-09 3.12813e-10 109.89 1.40596e-09 8.96025e-10 109.89 -1.45006e-09 2.39232e-09 109.89 2.60033e-09 2.11462e-09 109.89 1.98951e-09 3.1516e-09 109.89 -7.53473e-09 9.97386e-10 109.89 3.19784e-09 1.56647e-09 109.89 -1.28485e-09 1.00521e-09 109.89 5.75853e-09 1.54515e-09 109.89 4.64294e-09 1.27223e-09 109.89 3.38455e-08 5.6785e-09 109.89 7.08119e-09 -5.30474e-09 109.89 -1.09082e-09 4.18044e-09 109.89 -9.34708e-09 -4.48775e-09 109.89 -1.91084e-08 -3.44059e-10 109.89 7.6401e-09 -1.77219e-08 109.89 2.35787e-09 9.10894e-09 109.89 9.37916e-12 -5.91851e-09 109.89 1.08739e-09 1.60088e-08 109.89 -1.83419e-09 1.00951e-08 109.89 3.85045e-08 2.39412e-09 109.89 1.37667e-08 -1.70073e-09 109.89 -3.81768e-09 2.03543e-09 109.89 -5.35917e-09 -2.33868e-10 109.89 -2.12222e-08 1.20215e-09 109.89 2.10675e-08 -1.41606e-08 109.89 1.10373e-08 6.98763e-09 109.89 -3.39546e-09 -4.46163e-09 109.89 1.62893e-09 1.31049e-08 109.89 -1.00706e-08 8.60026e-09 109.89 3.47244e-08 -5.80185e-09 109.89 1.66268e-08 3.04857e-09 109.89 -5.28931e-09 -1.39894e-09 109.89 -6.18712e-10 6.80273e-09 109.89 -1.84826e-08 4.9133e-09 109.89 4.87918e-09 5.47804e-09 109.89 6.12874e-09 -4.07011e-09 109.89 -1.74383e-09 6.46097e-10 109.89 5.02133e-10 -6.31972e-09 109.89 -3.96277e-09 -4.75293e-09 109.89 2.2824e-08 -9.03021e-09 109.89 7.9508e-09 -7.77885e-09 109.89 -4.20337e-09 -6.3081e-11 109.89 -7.15109e-09 1.60614e-11 109.89 -1.72379e-08 4.55106e-09 109.89 9.12155e-09 3.84007e-09 109.89 8.61975e-09 -5.68828e-09 109.89 -3.01913e-09 6.28528e-10 109.89 2.43563e-10 -6.54375e-09 109.89 -7.00367e-09 -4.04534e-09 109.89 2.08891e-08 -5.67645e-09 109.89 9.58418e-09 -7.96894e-09 109.89 -4.3959e-09 9.64651e-11 109.89 -4.82215e-09 -2.41673e-09 109.89 -1.55076e-08 1.94496e-09 109.89 1.5609e-08 -4.24219e-10 109.89 1.02453e-08 -7.32714e-09 109.89 -4.11146e-09 4.06136e-10 109.89 -1.69662e-09 -5.22371e-09 109.89 -1.15932e-08 -1.58415e-09 109.89 -1.30922e-08 -7.88539e-09 109.89 -1.93673e-09 -3.52957e-09 109.89 2.94501e-09 5.63077e-10 109.89 7.73615e-09 3.08912e-09 109.89 1.23272e-08 5.926e-09 109.89 -6.05756e-09 -2.74835e-10 109.89 -2.81317e-09 -2.31051e-09 109.89 6.61965e-10 1.04071e-10 109.89 1.48396e-09 -1.79952e-09 109.89 4.06734e-09 -6.08121e-10 109.89 -1.27814e-08 -6.53347e-09 109.89 -3.10024e-09 -3.83148e-09 109.89 2.958e-09 2.56136e-10 109.89 6.27512e-09 1.61419e-09 109.89 1.1439e-08 4.26516e-09 109.89 -8.70857e-09 -1.4133e-09 109.89 -3.73625e-09 -2.97879e-09 109.89 1.38876e-09 1.0111e-11 109.89 2.35386e-09 -1.53723e-09 109.89 6.26792e-09 1.49356e-11 109.89 -1.1384e-08 -3.91577e-09 109.89 -3.98689e-09 -3.66959e-09 109.89 2.37494e-09 2.38902e-11 109.89 4.15345e-09 -2.91909e-10 109.89 9.21146e-09 1.85753e-09 109.89 -4.42833e-09 9.53171e-12 109.89 -2.12303e-09 -1.93602e-09 109.89 3.33714e-10 1.712e-10 109.89 1.16211e-09 -1.70546e-09 109.89 2.93733e-09 -6.63555e-10 109.89 -5.36884e-09 6.71589e-11 109.89 -8.13742e-10 2.09366e-09 109.89 -5.35437e-10 -1.10941e-09 109.89 1.03091e-09 1.36504e-09 109.89 2.05979e-09 -3.84972e-10 109.89 -1.01367e-09 2.80986e-12 109.89 -1.07417e-09 -1.20876e-09 109.89 8.33609e-11 1.86592e-10 109.89 3.12554e-10 -1.18827e-09 109.89 8.76867e-10 -4.48829e-10 109.89 6.92864e-10 -7.72659e-10 109.89 -4.01329e-10 1.11581e-09 109.89 1.28949e-10 -6.10584e-10 109.89 -6.03222e-10 1.03468e-09 109.89 -4.45937e-10 2.3627e-10 109.89 2.4264e-09 -6.15717e-10 109.89 -3.40975e-10 -1.14323e-10 109.89 2.19671e-10 -7.21205e-11 109.89 -8.24343e-10 -2.55156e-11 109.89 -1.03097e-09 1.21643e-10 109.89 -1.00006e-08 -1.26735e-09 109.89 -3.85521e-08 -1.50648e-08 109.89 1.82252e-08 8.72319e-09 109.89 6.73865e-09 1.71218e-10 109.89 3.25734e-08 1.13494e-08 109.89 1.4971e-09 -5.14764e-09 109.89 1.37389e-08 -9.14392e-09 109.89 -6.23909e-09 6.04321e-09 109.89 -1.47567e-09 2.44939e-09 109.89 -1.01225e-08 1.04658e-08 109.89 -5.34935e-09 -1.6606e-09 109.89 -3.17501e-08 -1.84687e-08 109.89 1.75738e-08 1.16484e-08 109.89 4.28551e-09 4.7215e-10 109.89 2.70394e-08 1.48781e-08 109.89 1.13875e-09 -4.26541e-09 109.89 3.73654e-09 -1.30755e-08 109.89 -2.06928e-11 8.92994e-09 109.89 -7.32168e-10 2.01031e-09 109.89 -1.91282e-09 1.31932e-08 109.89 -9.44196e-10 -2.83165e-09 109.89 -1.49329e-08 -1.77899e-08 109.89 1.03182e-08 1.18793e-08 109.89 1.31919e-09 1.2039e-09 109.89 1.33345e-08 1.57509e-08 109.89 -5.57881e-09 1.10756e-08 109.89 -2.43258e-08 3.81232e-09 109.89 -1.46271e-09 5.90326e-09 109.89 -5.41698e-09 -5.74584e-09 109.89 2.83331e-09 -3.91491e-09 109.89 5.09263e-09 -4.33684e-09 109.89 -2.1374e-08 8.47622e-09 109.89 1.52128e-08 -5.88802e-09 109.89 -5.50285e-10 3.4145e-09 109.89 1.58374e-08 -3.06481e-09 109.89 -3.21273e-09 3.09764e-09 109.89 1.31194e-08 -3.71397e-09 109.89 -8.62815e-09 2.72453e-09 109.89 1.01191e-09 -3.13604e-09 109.89 -8.62636e-09 -1.32998e-10 109.89 7.18808e-09 -6.76097e-09 109.89 -4.74802e-09 4.88999e-09 109.89 1.10211e-08 -6.73723e-09 109.89 -8.89848e-11 3.60654e-09 109.89 7.82457e-09 -1.93164e-09 109.89 3.24998e-09 -4.70811e-09 109.89 1.89623e-08 -2.45184e-09 109.89 -1.88081e-09 -3.12613e-09 109.89 2.31691e-09 1.01932e-09 109.89 -5.73489e-09 3.20096e-10 109.89 1.08535e-08 -1.38628e-08 109.89 -6.59854e-09 1.18505e-08 109.89 9.20266e-09 -8.99175e-09 109.89 -5.1012e-09 9.69873e-09 109.89 2.01544e-09 1.08718e-09 109.89 -6.70419e-09 1.57492e-09 109.89 -2.57531e-09 -2.3004e-09 109.89 -1.45678e-08 4.32636e-09 109.89 -1.3608e-08 1.3697e-09 109.89 -1.92659e-08 4.61165e-09 109.89 3.4486e-09 -6.33369e-10 109.89 9.33677e-10 2.53072e-09 109.89 7.44299e-09 -1.18261e-09 109.89 6.86763e-09 1.18571e-09 109.89 9.87788e-09 -5.20401e-10 109.89 -1.31307e-08 7.78676e-09 109.89 2.85946e-09 -5.22333e-09 109.89 -1.70407e-08 8.28485e-09 109.89 -5.56972e-09 -1.21932e-09 109.89 -1.46854e-08 4.77125e-09 109.89 -8.69263e-09 8.94502e-09 109.89 5.48347e-09 -4.72809e-09 109.89 -6.01543e-09 6.8021e-09 109.89 6.14336e-09 -3.08001e-09 109.89 9.7905e-10 1.72893e-09 109.89 4.54185e-09 -1.34422e-08 109.89 -1.41013e-09 -1.34483e-09 109.89 -3.90065e-09 3.3317e-09 109.89 -7.20553e-09 1.17525e-08 109.89 -9.41849e-09 1.56298e-08 109.89 -5.37216e-09 -8.4038e-09 109.89 9.27685e-10 1.29517e-09 109.89 2.16323e-09 3.84559e-09 109.89 5.08533e-09 1.04175e-08 109.89 6.80456e-09 1.29316e-08 109.89 1.64357e-09 -1.23084e-08 109.89 -1.57098e-09 1.37845e-11 109.89 -2.70762e-09 4.07756e-09 109.89 -5.13654e-09 1.25593e-08 109.89 -6.06256e-09 1.61537e-08 109.89 -3.70187e-09 -9.01213e-09 109.89 1.42677e-10 1.67918e-09 109.89 1.42609e-09 4.33952e-09 109.89 2.54755e-09 1.1583e-08 109.89 4.03982e-09 1.42684e-08 109.89 -1.36936e-09 -1.05192e-08 109.89 -9.64349e-10 1.32072e-09 109.89 -5.179e-10 4.54999e-09 109.89 -1.41875e-09 1.26119e-08 109.89 -8.48857e-10 1.57243e-08 109.89 1.24854e-08 5.64359e-10 109.89 -1.28952e-08 6.27276e-09 109.89 1.02984e-08 1.86189e-09 109.89 -5.30318e-09 4.83011e-09 109.89 3.96312e-09 3.29764e-09 109.89 -1.14141e-08 2.67729e-09 109.89 -2.34605e-08 2.02142e-08 109.89 -1.11631e-08 8.64095e-09 109.89 -2.03922e-08 2.09747e-08 109.89 -1.49322e-08 1.66819e-08 109.89 1.9252e-08 -4.0063e-09 109.89 2.294e-09 -4.12769e-09 109.89 1.69022e-08 -4.8067e-09 109.89 7.15531e-09 -5.48122e-09 109.89 1.27347e-08 -5.74983e-09 109.89 -7.47644e-09 -1.67673e-09 109.89 3.77424e-09 1.78801e-09 109.89 -7.17483e-09 6.33058e-10 109.89 -8.78032e-10 3.4226e-09 109.89 -5.20976e-09 3.11265e-09 109.89 8.58788e-09 -5.24004e-09 109.89 1.47157e-08 -9.04037e-09 109.89 7.53437e-09 -6.03923e-09 109.89 1.18481e-08 -8.60483e-09 109.89 8.65703e-09 -7.43592e-09 109.89 6.95738e-09 3.17321e-09 109.89 -6.0119e-11 2.34718e-09 109.89 -1.66914e-09 -4.58684e-10 109.89 -2.98051e-09 -5.12173e-10 109.89 -5.4624e-09 -2.24563e-09 109.89 -2.6861e-09 -2.21417e-09 109.89 -1.28594e-11 3.58268e-09 109.89 3.58469e-10 -1.27879e-09 109.89 8.88919e-10 2.44212e-09 109.89 1.69401e-09 5.24951e-10 109.89 4.74064e-09 1.25282e-09 109.89 1.35358e-11 2.82193e-09 109.89 -1.83555e-09 -6.89521e-10 109.89 -2.28926e-09 7.58522e-10 109.89 -4.47136e-09 -1.05058e-09 109.89 -1.18752e-09 -2.36378e-09 109.89 4.07283e-10 3.76667e-09 109.89 -4.79378e-10 -1.33634e-09 109.89 5.16717e-10 2.73271e-09 109.89 2.42334e-10 6.97559e-10 109.89 1.58425e-09 -1.10818e-09 109.89 3.35254e-10 3.46644e-09 109.89 -1.43665e-09 -1.08622e-09 109.89 -8.1254e-10 2.165e-09 109.89 -2.2526e-09 1.94545e-10 109.89 -4.73243e-10 -1.43244e-09 109.89 -8.32348e-09 3.13594e-09 109.89 7.38299e-09 -5.47646e-09 109.89 2.49508e-09 -3.42511e-09 109.89 1.00341e-08 -7.36062e-09 109.89 1.02498e-08 -6.34888e-09 109.89 -1.08872e-08 1.53187e-08 109.89 1.29002e-08 -1.47196e-09 109.89 -2.64393e-09 1.51714e-08 109.89 8.01722e-09 8.23636e-09 109.89 -4.25223e-09 -1.75059e-10 109.89 5.58291e-10 9.52554e-11 109.89 7.65283e-10 -3.18408e-09 109.89 4.94575e-09 -4.13209e-09 109.89 5.48033e-09 -5.66572e-09 109.89 2.12808e-10 -2.10669e-09 109.89 4.16672e-09 3.60598e-09 109.89 -4.95277e-09 2.08624e-09 109.89 -2.62488e-09 6.88495e-09 109.89 -7.06626e-09 6.5651e-09 109.89 -5.80295e-09 3.61037e-10 109.89 8.87548e-09 -2.15269e-09 109.89 -8.80226e-09 1.05378e-09 109.89 1.84122e-09 -1.07018e-09 109.89 -6.15577e-09 4.58315e-10 109.89 -4.85582e-08 3.99316e-09 109.89 -1.00233e-08 -8.04807e-10 109.89 3.12114e-09 1.33959e-09 109.89 1.52758e-08 -1.3909e-09 109.89 3.01981e-08 -9.30498e-10 109.89 2.8607e-09 9.13708e-09 109.89 -1.69842e-09 -4.72275e-09 109.89 3.34143e-09 1.57525e-09 109.89 5.57378e-10 -1.00027e-08 109.89 2.65223e-09 -7.69607e-09 109.89 -4.18271e-08 6.83372e-09 109.89 -6.10282e-09 -4.2686e-09 109.89 1.96945e-09 2.80285e-09 109.89 1.54353e-08 -5.6921e-09 109.89 2.64954e-08 -2.93511e-09 109.89 -7.41466e-09 9.27675e-09 109.89 -2.03568e-09 -6.36958e-09 109.89 2.9259e-09 2.56606e-09 109.89 4.56666e-09 -1.06781e-08 109.89 8.31457e-09 -7.04141e-09 109.89 -2.56657e-08 8.87728e-09 109.89 -3.0814e-09 -6.70414e-09 109.89 2.00967e-09 3.35518e-09 109.89 1.11668e-08 -9.52848e-09 109.89 1.79725e-08 -5.34948e-09 </DataArray> 
<DataArray  type="Float64"  Name="u" NumberOfComponents="3" format="ascii"> 
0.0567206 -0.0579479 0 0.059767 -0.0470097 0 0.0574304 -0.0557008 0 0.0592437 -0.0492016 0 0.0583879 -0.0524362 0 0.0028014 -0.0549993 0 0.00294983 -0.0440854 0 0.00283597 -0.0527365 0 0.0029243 -0.0462471 0 0.0028826 -0.0494642 0 0.0458344 -0.0573277 0 0.0482845 -0.0463984 0 0.0464051 -0.0550779 0 0.0478634 -0.0485832 0 0.0471751 -0.0518129 0 0.0137783 -0.0555823 0 0.0145089 -0.0446662 0 0.0139484 -0.053323 0 0.0143832 -0.0468333 0 0.014178 -0.050053 0 0.0298311 -0.0564448 0 0.0314176 -0.045524 0 0.0302006 -0.0541905 0 0.0311448 -0.0476995 0 0.0306991 -0.0509235 0 0.293683 -0.0463108 0 0.294616 -0.0311997 0 0.293794 -0.0431211 0 0.294378 -0.0341581 0 0.294051 -0.0385765 0 0.249395 -0.0443819 0 0.251254 -0.0301835 0 0.249765 -0.0413763 0 0.250887 -0.0329679 0 0.250327 -0.0371117 0 0.28526 -0.0460022 0 0.286373 -0.0310446 0 0.285414 -0.0428393 0 0.286106 -0.0339714 0 0.285729 -0.0383409 0 0.258945 -0.04487 0 0.260619 -0.0304451 0 0.259256 -0.0418114 0 0.260273 -0.0332683 0 0.259755 -0.0374756 0 0.27241 -0.0454851 0 0.273803 -0.0307739 0 0.272638 -0.0423672 0 0.273494 -0.0336509 0 0.273044 -0.0379433 0 0.0619409 -0.0341998 0 0.0629567 -0.0237355 0 0.0621853 -0.0320724 0 0.0627809 -0.0258571 0 0.0625018 -0.0289632 0 0.00305669 -0.0317797 0 0.00310769 -0.0220009 0 0.00306887 -0.0297788 0 0.00309878 -0.0239737 0 0.00308471 -0.0268686 0 0.0500382 -0.0336974 0 0.0508638 -0.0233772 0 0.0502363 -0.0315968 0 0.0507204 -0.0254677 0 0.0504933 -0.0285295 0 0.0150346 -0.0322628 0 0.0152852 -0.0223484 0 0.0150944 -0.030237 0 0.0152414 -0.0243508 0 0.0151723 -0.0272875 0 0.0325569 -0.0329748 0 0.0330976 -0.0228598 0 0.0326863 -0.0309122 0 0.0330034 -0.0249059 0 0.0328544 -0.0279045 0 0.303594 -0.0874694 0 0.295909 -0.0672 0 0.301832 -0.0831549 0 0.297139 -0.0710984 0 0.29934 -0.0770131 0 0.272295 -0.0889609 0 0.249865 -0.0665445 0 0.268849 -0.0844572 0 0.255793 -0.071175 0 0.262999 -0.0778512 0 0.297103 -0.087514 0 0.287671 -0.0669516 0 0.295004 -0.0831449 0 0.289263 -0.0709109 0 0.291993 -0.0769157 0 0.278394 -0.0883391 0 0.260506 -0.0665392 0 0.275279 -0.0838567 0 0.264736 -0.0709288 0 0.270311 -0.0773684 0 0.287642 -0.0877689 0 0.274746 -0.0666745 0 0.285031 -0.0833321 0 0.277293 -0.0707953 0 0.28114 -0.0769773 0 0.134126 -0.128773 0 0.126244 -0.120287 0 0.133162 -0.126771 0 0.128577 -0.121701 0 0.131243 -0.124076 0 0.114219 -0.133214 0 0.112733 -0.126153 0 0.114029 -0.131495 0 0.113142 -0.127305 0 0.113648 -0.129244 0 0.130043 -0.12987 0 0.123033 -0.121725 0 0.129211 -0.127941 0 0.125136 -0.123077 0 0.127523 -0.12535 0 0.118261 -0.132532 0 0.11503 -0.125201 0 0.117891 -0.130768 0 0.115976 -0.126405 0 0.117101 -0.128431 0 0.124141 -0.131315 0 0.118783 -0.123596 0 0.123528 -0.129476 0 0.120395 -0.124874 0 0.122242 -0.12702 0 0.0309845 -0.134735 0 0.0332734 -0.123936 0 0.0314009 -0.132585 0 0.0327607 -0.126178 0 0.0320545 -0.129407 0 0.00153921 -0.134655 0 0.00165642 -0.123446 0 0.00156092 -0.132456 0 0.00163063 -0.12581 0 0.00159466 -0.129178 0 0.0250888 -0.134717 0 0.0269622 -0.12383 0 0.0254318 -0.132555 0 0.0265452 -0.126097 0 0.0259683 -0.129355 0 0.00756793 -0.134669 0 0.00814326 -0.123541 0 0.00767437 -0.132479 0 0.00801652 -0.12588 0 0.00783991 -0.129221 0 0.0163646 -0.134692 0 0.0176007 -0.123682 0 0.0165924 -0.132516 0 0.0173274 -0.125986 0 0.0169475 -0.129286 0 0.371528 -0.139848 0 0.370023 -0.114546 0 0.371178 -0.134499 0 0.370278 -0.119437 0 0.370702 -0.126843 0 0.347121 -0.140026 0 0.344112 -0.114677 0 0.346501 -0.134689 0 0.344712 -0.119601 0 0.345601 -0.127033 0 0.366551 -0.13988 0 0.364762 -0.114575 0 0.366142 -0.134534 0 0.365074 -0.11947 0 0.365582 -0.126879 0 0.352045 -0.139985 0 0.349365 -0.114653 0 0.351476 -0.134646 0 0.34988 -0.119568 0 0.350663 -0.126991 0 0.359283 -0.139929 0 0.357061 -0.114616 0 0.358792 -0.134587 0 0.357467 -0.119519 0 0.358106 -0.126933 0 0.368564 -0.0480594 0 0.368559 -0.0319436 0 0.368548 -0.0446736 0 0.368543 -0.0350934 0 0.368537 -0.0398191 0 0.338092 -0.0476045 0 0.338292 -0.0317546 0 0.338089 -0.044272 0 0.338216 -0.0348547 0 0.33813 -0.0394999 0 0.362727 -0.0480015 0 0.362741 -0.0319172 0 0.36271 -0.0446218 0 0.362718 -0.035061 0 0.362703 -0.039777 0 0.344664 -0.0477355 0 0.344797 -0.0318064 0 0.344654 -0.0443869 0 0.344738 -0.0349212 0 0.344678 -0.0395902 0 0.353896 -0.0478884 0 0.353957 -0.0318688 0 0.353881 -0.0445216 0 0.353919 -0.0350004 0 0.353885 -0.0396967 0 0.369081 -0.0883144 0 0.368769 -0.0692752 0 0.368996 -0.0843009 0 0.368816 -0.0730071 0 0.368896 -0.0785771 0 0.340814 -0.0880306 0 0.338894 -0.0686999 0 0.340345 -0.0839395 0 0.339196 -0.0724662 0 0.339724 -0.0781142 0 0.363505 -0.0882887 0 0.363009 -0.0692072 0 0.363375 -0.0842644 0 0.363085 -0.0729446 0 0.363215 -0.0785261 0 0.346729 -0.0881241 0 0.345295 -0.0688716 0 0.346375 -0.0840543 0 0.345519 -0.0726292 0 0.345911 -0.0782565 0 0.355209 -0.0882249 0 0.354326 -0.0690677 0 0.354986 -0.0841807 0 0.354463 -0.0728143 0 0.354701 -0.0784163 0 0.295876 -0.0142521 0 0.29678 -0.000697732 0 0.296065 -0.0114814 0 0.296601 -0.0034334 0 0.296336 -0.00744781 0 0.252991 -0.0139313 0 0.254079 -0.000684017 0 0.253227 -0.0112344 0 0.253869 -0.00336536 0 0.253555 -0.00729559 0 0.287743 -0.0142129 0 0.288685 -0.000696249 0 0.287942 -0.0114523 0 0.2885 -0.00342598 0 0.288225 -0.0074307 0 0.262276 -0.0140255 0 0.263327 -0.000688277 0 0.262503 -0.0113082 0 0.263124 -0.00338642 0 0.26282 -0.00734209 0 0.275324 -0.0141342 0 0.276321 -0.000693021 0 0.275538 -0.0113925 0 0.276127 -0.00340992 0 0.275837 -0.00739442 0 0.0638876 -0.0110711 0 0.0645771 -0.000545171 0 0.064031 -0.00893695 0 0.0644396 -0.00268179 0 0.0642369 -0.00581004 0 0.00315532 -0.0102517 0 0.00319099 -0.000504683 0 0.00316272 -0.00827472 0 0.00318387 -0.00248267 0 0.00317337 -0.00537896 0 0.0516255 -0.0109025 0 0.052192 -0.000536848 0 0.0517432 -0.00880073 0 0.052079 -0.00264086 0 0.0519124 -0.0057214 0 0.015519 -0.0104163 0 0.015694 -0.000512822 0 0.0155553 -0.00840779 0 0.0156591 -0.00252269 0 0.0156076 -0.0054656 0 0.0336 -0.0106583 0 0.0339752 -0.000524785 0 0.0336779 -0.00860339 0 0.0339003 -0.00258153 0 0.0337899 -0.00559296 0 0.31788 -0.140483 0 0.31285 -0.11508 0 0.317027 -0.135182 0 0.31406 -0.120069 0 0.315641 -0.127541 0 0.292634 -0.141613 0 0.286699 -0.116797 0 0.291739 -0.136474 0 0.288251 -0.121714 0 0.290174 -0.129033 0 0.31288 -0.140636 0 0.307573 -0.115282 0 0.312006 -0.135354 0 0.308878 -0.120271 0 0.310559 -0.127733 0 0.297899 -0.141299 0 0.292038 -0.116283 0 0.296998 -0.136111 0 0.293552 -0.121231 0 0.295442 -0.128606 0 0.305462 -0.140924 0 0.299822 -0.115697 0 0.304566 -0.135681 0 0.301247 -0.120675 0 0.303051 -0.128105 0 0.136817 -0.155653 0 0.136462 -0.142648 0 0.136786 -0.152946 0 0.136581 -0.145209 0 0.136708 -0.149038 0 0.113265 -0.157067 0 0.114301 -0.145393 0 0.113534 -0.154619 0 0.114157 -0.147671 0 0.113879 -0.151098 0 0.132 -0.155987 0 0.131952 -0.143305 0 0.132037 -0.153341 0 0.132015 -0.145796 0 0.132053 -0.149527 0 0.118035 -0.156829 0 0.118824 -0.144942 0 0.118253 -0.154337 0 0.118729 -0.147264 0 0.118525 -0.150754 0 0.125005 -0.156434 0 0.125391 -0.144179 0 0.125137 -0.15387 0 0.125374 -0.146579 0 0.125287 -0.15018 0 0.0279282 -0.158457 0 0.0289993 -0.147502 0 0.0281136 -0.156205 0 0.0287459 -0.149692 0 0.0284112 -0.152932 0 0.00137898 -0.158472 0 0.00143439 -0.147517 0 0.00138841 -0.156221 0 0.0014211 -0.149709 0 0.00140371 -0.152949 0 0.0225659 -0.158464 0 0.0234457 -0.147509 0 0.0227172 -0.156213 0 0.0232366 -0.1497 0 0.0229611 -0.15294 0 0.00678243 -0.158471 0 0.00705423 -0.147517 0 0.00682873 -0.156221 0 0.00698911 -0.149708 0 0.00690379 -0.152949 0 0.0146854 -0.158469 0 0.0152681 -0.147515 0 0.014785 -0.156219 0 0.0151289 -0.149706 0 0.0149461 -0.152947 0 0.191833 -0.0130538 0 0.193101 -0.000642276 0 0.192105 -0.0105344 0 0.192854 -0.00315962 0 0.192486 -0.00684646 0 0.135495 -0.0121273 0 0.136702 -0.000597114 0 0.135749 -0.00978915 0 0.136464 -0.00293733 0 0.13611 -0.00636381 0 0.180729 -0.0128709 0 0.182008 -0.00063341 0 0.181002 -0.0103876 0 0.181758 -0.00311596 0 0.181386 -0.00675156 0 0.147214 -0.0123164 0 0.14846 -0.000606372 0 0.147477 -0.00994148 0 0.148214 -0.00298288 0 0.14785 -0.00646262 0 0.16414 -0.0125953 0 0.165415 -0.000619997 0 0.16441 -0.010166 0 0.165164 -0.00304994 0 0.164793 -0.00660816 0 0.187422 -0.0405816 0 0.189889 -0.0280692 0 0.188037 -0.0380328 0 0.189483 -0.0305996 0 0.188817 -0.0343112 0 0.131759 -0.037443 0 0.133783 -0.0260101 0 0.132262 -0.035132 0 0.133446 -0.0283369 0 0.132899 -0.0317388 0 0.176361 -0.0399139 0 0.1788 -0.0276554 0 0.176975 -0.0374277 0 0.178402 -0.0301428 0 0.177748 -0.0337856 0 0.143261 -0.0380466 0 0.145423 -0.0264241 0 0.143802 -0.0356984 0 0.145066 -0.0287901 0 0.144484 -0.0322491 0 0.159932 -0.0389627 0 0.162262 -0.0270398 0 0.160519 -0.0365525 0 0.161881 -0.0294654 0 0.161256 -0.0330132 0 0.169849 -0.0670538 0 0.180955 -0.0555717 0 0.172419 -0.0647871 0 0.179091 -0.0579747 0 0.175947 -0.0614181 0 0.120288 -0.0621313 0 0.127068 -0.0510492 0 0.12187 -0.0598874 0 0.125909 -0.0533066 0 0.124005 -0.0566007 0 0.160204 -0.0658373 0 0.170165 -0.0544799 0 0.162518 -0.0635776 0 0.168482 -0.0568369 0 0.165672 -0.0602338 0 0.130685 -0.0629559 0 0.138148 -0.051827 0 0.132426 -0.0607095 0 0.136873 -0.0541015 0 0.134777 -0.0574132 0 0.145649 -0.0642896 0 0.154235 -0.0530678 0 0.14765 -0.0620378 0 0.152774 -0.0553756 0 0.15036 -0.058722 0 0.368832 -0.0143687 0 0.369197 -0.000700351 0 0.3689 -0.0115576 0 0.369119 -0.00344715 0 0.369007 -0.00748483 0 0.33892 -0.0143411 0 0.339563 -0.000699808 0 0.339045 -0.01154 0 0.339429 -0.00344425 0 0.339235 -0.00747665 0 0.363074 -0.0143633 0 0.363499 -0.000700175 0 0.363154 -0.0115537 0 0.363409 -0.00344625 0 0.363278 -0.00748268 0 0.345339 -0.0143468 0 0.34593 -0.000699843 0 0.345453 -0.0115432 0 0.345806 -0.00344449 0 0.345627 -0.00747775 0 0.354387 -0.0143551 0 0.354897 -0.00069997 0 0.354484 -0.0115483 0 0.354789 -0.0034452 0 0.354633 -0.00747993 0 0.0886274 -0.13493 0 0.0929484 -0.125593 0 0.0892247 -0.133012 0 0.0917332 -0.127477 0 0.0903104 -0.130235 0 0.0643027 -0.134902 0 0.0684991 -0.124721 0 0.0650055 -0.132846 0 0.0674858 -0.126805 0 0.0661609 -0.129833 0 0.0839489 -0.134973 0 0.0884366 -0.125412 0 0.0846067 -0.133021 0 0.0872294 -0.127351 0 0.0857681 -0.130183 0 0.0694975 -0.134939 0 0.0738787 -0.124888 0 0.070213 -0.132906 0 0.0727983 -0.126942 0 0.0714061 -0.129929 0 0.0768641 -0.134979 0 0.0813945 -0.125146 0 0.0775707 -0.132982 0 0.0802346 -0.127149 0 0.0787789 -0.130068 0 0.0842681 -0.158 0 0.0861734 -0.146978 0 0.0846696 -0.155701 0 0.0858037 -0.149143 0 0.0852454 -0.152385 0 0.0592871 -0.158323 0 0.0611628 -0.147371 0 0.0596369 -0.15606 0 0.0607475 -0.149547 0 0.0601743 -0.152779 0 0.0792749 -0.158091 0 0.0812272 -0.147103 0 0.0796753 -0.155803 0 0.0808359 -0.149266 0 0.080258 -0.1525 0 0.0644328 -0.158279 0 0.0663668 -0.147327 0 0.0648013 -0.156012 0 0.0659475 -0.149498 0 0.0653606 -0.152728 0 0.0718955 -0.158198 0 0.0738674 -0.147237 0 0.0722847 -0.155922 0 0.0734551 -0.149402 0 0.0728636 -0.152632 0 0.0368929 -0.10993 0 0.0408045 -0.0978624 0 0.0376119 -0.107497 0 0.039933 -0.100319 0 0.0387309 -0.103915 0 0.00183329 -0.108375 0 0.00202246 -0.0954584 0 0.001868 -0.105746 0 0.00198018 -0.0980545 0 0.00192203 -0.101891 0 0.0298761 -0.10961 0 0.0330139 -0.097371 0 0.0304526 -0.107138 0 0.0323141 -0.0998564 0 0.0313497 -0.103501 0 0.00901367 -0.108687 0 0.0099452 -0.0959436 0 0.00918463 -0.106099 0 0.00973705 -0.0985116 0 0.00945069 -0.1023 0 0.0194896 -0.109146 0 0.0215157 -0.0966556 0 0.0198615 -0.106616 0 0.0210632 -0.0991824 0 0.0204404 -0.102899 0 0.10455 -0.1141 0 0.118192 -0.10394 0 0.107087 -0.112087 0 0.115216 -0.106046 0 0.111032 -0.109091 0 0.0764747 -0.111939 0 0.0854049 -0.100869 0 0.078126 -0.109727 0 0.0834365 -0.103148 0 0.0806947 -0.106456 0 0.0993549 -0.113564 0 0.11204 -0.103189 0 0.101712 -0.111501 0 0.109268 -0.105335 0 0.105377 -0.10844 0 0.0826192 -0.112305 0 0.0924856 -0.1014 0 0.084446 -0.110127 0 0.090316 -0.103647 0 0.0872874 -0.106906 0 0.0912463 -0.112888 0 0.102516 -0.102234 0 0.0933367 -0.110764 0 0.100046 -0.104433 0 0.0965879 -0.107619 0 0.184924 -0.113773 0 0.17005 -0.101111 0 0.182778 -0.110864 0 0.174031 -0.103304 0 0.178905 -0.106889 0 0.160307 -0.121009 0 0.148828 -0.110197 0 0.158753 -0.118507 0 0.152024 -0.112052 0 0.155837 -0.115103 0 0.179783 -0.115281 0 0.165658 -0.102984 0 0.177771 -0.112453 0 0.16947 -0.105111 0 0.174112 -0.10859 0 0.165119 -0.119582 0 0.153017 -0.108384 0 0.163459 -0.116995 0 0.156362 -0.110309 0 0.16037 -0.113472 0 0.172361 -0.117453 0 0.159282 -0.105701 0 0.170533 -0.114745 0 0.162855 -0.107728 0 0.16717 -0.11105 0 0.194978 -0.150755 0 0.192116 -0.133295 0 0.194502 -0.147166 0 0.192815 -0.136786 0 0.19372 -0.141949 0 0.167019 -0.153235 0 0.164999 -0.137942 0 0.166645 -0.150084 0 0.165449 -0.140991 0 0.166068 -0.145509 0 0.189129 -0.151287 0 0.186413 -0.134282 0 0.188665 -0.147792 0 0.187062 -0.137681 0 0.187914 -0.14271 0 0.172488 -0.152763 0 0.170261 -0.137045 0 0.17208 -0.149527 0 0.170763 -0.140182 0 0.171448 -0.144828 0 0.180705 -0.152042 0 0.178217 -0.135688 0 0.180263 -0.148678 0 0.178793 -0.138955 0 0.179564 -0.143791 0 0.0466627 -0.0833647 0 0.0516543 -0.0716288 0 0.0476978 -0.0809585 0 0.0506776 -0.0739828 0 0.0492036 -0.0774565 0 0.00230897 -0.0805883 0 0.00255395 -0.0688137 0 0.00235979 -0.0781692 0 0.00250607 -0.0711766 0 0.00243373 -0.0746576 0 0.0377317 -0.0827892 0 0.0417563 -0.0710371 0 0.0385663 -0.0803785 0 0.0409691 -0.0733943 0 0.0397807 -0.0768718 0 0.0113552 -0.0811431 0 0.0125605 -0.0693706 0 0.0116052 -0.0787253 0 0.0123249 -0.0717326 0 0.011969 -0.0752138 0 0.0245748 -0.0819605 0 0.027188 -0.0701944 0 0.0251169 -0.0795454 0 0.0266771 -0.0725546 0 0.0259054 -0.076035 0 0.137132 -0.0910969 0 0.152899 -0.0802467 0 0.140391 -0.0889023 0 0.149787 -0.0824513 0 0.145129 -0.0856795 0 0.0982741 -0.0870626 0 0.109105 -0.0756082 0 0.100517 -0.0847265 0 0.106978 -0.0779145 0 0.103779 -0.0813124 0 0.129758 -0.0901136 0 0.144528 -0.0791068 0 0.132813 -0.0878831 0 0.141617 -0.0813384 0 0.137254 -0.084611 0 0.106583 -0.0877539 0 0.118414 -0.0763898 0 0.109033 -0.0854395 0 0.116089 -0.0786813 0 0.112595 -0.0820541 0 0.118426 -0.088854 0 0.131728 -0.0776506 0 0.121179 -0.0865777 0 0.12911 -0.0799154 0 0.125181 -0.0832434 0 0.240149 -0.0963983 0 0.216502 -0.079676 0 0.236429 -0.0925731 0 0.222479 -0.0825725 0 0.230071 -0.0873194 0 0.215604 -0.104396 0 0.195888 -0.0896549 0 0.21257 -0.101019 0 0.200934 -0.0922205 0 0.207301 -0.0963981 0 0.235151 -0.0979831 0 0.212226 -0.0817556 0 0.231542 -0.0942665 0 0.218008 -0.0845707 0 0.225369 -0.0891726 0 0.220615 -0.102758 0 0.200052 -0.0876772 0 0.217423 -0.0993022 0 0.205283 -0.090301 0 0.21191 -0.0945745 0 0.227886 -0.100356 0 0.206108 -0.0847442 0 0.224474 -0.096778 0 0.211612 -0.0874573 0 0.218614 -0.0918816 0 0.259548 -0.144407 0 0.254397 -0.121706 0 0.258824 -0.139729 0 0.255804 -0.12623 0 0.257501 -0.132937 0 0.230518 -0.147343 0 0.226637 -0.12704 0 0.229966 -0.143166 0 0.22769 -0.131095 0 0.228964 -0.137097 0 0.253747 -0.144983 0 0.248851 -0.122746 0 0.253062 -0.140402 0 0.250192 -0.12718 0 0.251806 -0.133751 0 0.236483 -0.146739 0 0.232361 -0.125937 0 0.235903 -0.142458 0 0.233487 -0.13009 0 0.234844 -0.136239 0 0.24516 -0.145853 0 0.240655 -0.124325 0 0.244531 -0.141421 0 0.24189 -0.12862 0 0.243375 -0.134983 0 0.334647 -0.0475284 0 0.334887 -0.031725 0 0.334647 -0.0442054 0 0.334799 -0.0348165 0 0.334699 -0.0394478 0 0.29787 -0.0464571 0 0.298717 -0.0312704 0 0.297963 -0.043254 0 0.298495 -0.0342442 0 0.298194 -0.0386866 0 0.327704 -0.0473606 0 0.328034 -0.0316596 0 0.327713 -0.0440584 0 0.327924 -0.0347323 0 0.327791 -0.0393327 0 0.305864 -0.0467244 0 0.306554 -0.0313938 0 0.305925 -0.0434949 0 0.306362 -0.0343962 0 0.306108 -0.0388836 0 0.31707 -0.0470696 0 0.317563 -0.0315426 0 0.3171 -0.0438023 0 0.317414 -0.0345828 0 0.317224 -0.0391305 0 0.295395 -0.0652571 0 0.293652 -0.0479686 0 0.294615 -0.0615404 0 0.293663 -0.0512818 0 0.293929 -0.0563009 0 0.24818 -0.0641742 0 0.249213 -0.045951 0 0.248186 -0.059835 0 0.248861 -0.0491314 0 0.248425 -0.0541657 0 0.28704 -0.0649799 0 0.285207 -0.0476486 0 0.28618 -0.061224 0 0.28518 -0.050944 0 0.285434 -0.0559578 0 0.259212 -0.0643175 0 0.2588 -0.0464667 0 0.258744 -0.060203 0 0.258559 -0.0496812 0 0.258443 -0.0546931 0 0.273859 -0.0646134 0 0.272315 -0.047111 0 0.273047 -0.0607323 0 0.272202 -0.050372 0 0.272358 -0.0553805 0 0.335394 -0.0667018 0 0.33466 -0.0492477 0 0.335141 -0.0630334 0 0.334715 -0.0526637 0 0.334874 -0.0577797 0 0.299505 -0.0654043 0 0.297849 -0.0481208 0 0.298789 -0.0616998 0 0.297876 -0.0514426 0 0.298145 -0.0564667 0 0.328623 -0.0664776 0 0.327716 -0.0490699 0 0.3283 -0.0628085 0 0.327776 -0.0524683 0 0.327966 -0.0575645 0 0.307328 -0.0656933 0 0.305857 -0.0483998 0 0.306731 -0.062006 0 0.305906 -0.0517402 0 0.306169 -0.0567784 0 0.318262 -0.0661031 0 0.317077 -0.0487625 0 0.317816 -0.0624295 0 0.317138 -0.0521321 0 0.317372 -0.0571978 0 0.337753 -0.0879744 0 0.335547 -0.0685993 0 0.337217 -0.0838711 0 0.335894 -0.0723705 0 0.336504 -0.0780301 0 0.306895 -0.0874749 0 0.299971 -0.0673383 0 0.305295 -0.0831882 0 0.301075 -0.0712145 0 0.30305 -0.0770893 0 0.331672 -0.0878519 0 0.32882 -0.0683781 0 0.330984 -0.0837217 0 0.32927 -0.0721602 0 0.330062 -0.0778459 0 0.313315 -0.087526 0 0.307709 -0.0676137 0 0.312003 -0.0832883 0 0.3086 -0.0714546 0 0.310187 -0.0772632 0 0.322586 -0.0876694 0 0.31854 -0.0680107 0 0.321623 -0.0834915 0 0.319181 -0.0718156 0 0.320314 -0.0775517 0 0.312188 -0.112574 0 0.304488 -0.0897064 0 0.310802 -0.10774 0 0.3062 -0.094158 0 0.30859 -0.100845 0 0.285824 -0.114316 0 0.273933 -0.0912659 0 0.283935 -0.10951 0 0.276907 -0.0958215 0 0.280717 -0.102597 0 0.306853 -0.112772 0 0.298158 -0.0897768 0 0.305335 -0.107929 0 0.300151 -0.0942718 0 0.302873 -0.101005 0 0.291189 -0.113787 0 0.279911 -0.0906492 0 0.289363 -0.108957 0 0.282685 -0.0952183 0 0.286283 -0.102016 0 0.299029 -0.11319 0 0.288938 -0.0900639 0 0.297339 -0.108344 0 0.291344 -0.0946115 0 0.294537 -0.101396 0 0.341102 -0.112223 0 0.33804 -0.0901067 0 0.340456 -0.107494 0 0.338625 -0.0943645 0 0.339524 -0.100801 0 0.314907 -0.112495 0 0.30771 -0.089699 0 0.313592 -0.107669 0 0.309286 -0.0941285 0 0.311511 -0.10079 0 0.335797 -0.112238 0 0.332038 -0.0899983 0 0.335028 -0.107489 0 0.332776 -0.0942842 0 0.333894 -0.10076 0 0.320232 -0.112379 0 0.313993 -0.0897267 0 0.319059 -0.10757 0 0.31532 -0.094115 0 0.317231 -0.100727 0 0.32802 -0.112281 0 0.323091 -0.0898405 0 0.327054 -0.107501 0 0.324098 -0.094174 0 0.325587 -0.100716 0 0.157901 -0.12173 0 0.146725 -0.111116 0 0.156398 -0.119272 0 0.149848 -0.112935 0 0.153565 -0.115929 0 0.136235 -0.128183 0 0.127983 -0.119504 0 0.13521 -0.126142 0 0.130401 -0.120958 0 0.133186 -0.123389 0 0.153285 -0.123122 0 0.142679 -0.112902 0 0.151875 -0.120751 0 0.145662 -0.114649 0 0.149198 -0.11753 0 0.140431 -0.126975 0 0.131518 -0.117909 0 0.139297 -0.124854 0 0.13409 -0.11944 0 0.137085 -0.121986 0 0.146744 -0.125099 0 0.136959 -0.115458 0 0.145467 -0.122854 0 0.13974 -0.117099 0 0.143014 -0.119812 0 0.136389 -0.14136 0 0.134529 -0.12984 0 0.136215 -0.138876 0 0.135172 -0.132009 0 0.135821 -0.135357 0 0.114359 -0.144252 0 0.114297 -0.134146 0 0.114441 -0.142061 0 0.114408 -0.136044 0 0.114477 -0.138973 0 0.131907 -0.142053 0 0.130388 -0.130899 0 0.131785 -0.139642 0 0.130934 -0.132995 0 0.131475 -0.136232 0 0.118857 -0.143778 0 0.11841 -0.133479 0 0.118886 -0.141543 0 0.118638 -0.135409 0 0.118832 -0.138393 0 0.125386 -0.142975 0 0.124391 -0.132297 0 0.12534 -0.14066 0 0.124784 -0.134297 0 0.125156 -0.137393 0 0.162149 -0.136871 0 0.158552 -0.123033 0 0.161675 -0.133925 0 0.159628 -0.125672 0 0.160816 -0.129715 0 0.138694 -0.140988 0 0.136666 -0.12927 0 0.138492 -0.138465 0 0.137355 -0.13148 0 0.138056 -0.134887 0 0.157154 -0.137773 0 0.153892 -0.12438 0 0.156737 -0.134917 0 0.154888 -0.12693 0 0.155971 -0.13084 0 0.143256 -0.140227 0 0.140911 -0.128103 0 0.143002 -0.137624 0 0.141683 -0.130396 0 0.142484 -0.133925 0 0.150087 -0.139038 0 0.147288 -0.126291 0 0.149753 -0.136311 0 0.148173 -0.12871 0 0.149113 -0.132427 0 0.244412 -0.0441087 0 0.246359 -0.0300376 0 0.244811 -0.0411352 0 0.245983 -0.0328014 0 0.245403 -0.0369111 0 0.193011 -0.0409275 0 0.195475 -0.0282767 0 0.193621 -0.0383429 0 0.195067 -0.0308293 0 0.194399 -0.0345773 0 0.234436 -0.0435287 0 0.236543 -0.0297278 0 0.234893 -0.0406269 0 0.236153 -0.0324504 0 0.235541 -0.0364897 0 0.203843 -0.0416106 0 0.206269 -0.0286737 0 0.204431 -0.0389487 0 0.20586 -0.0312699 0 0.205194 -0.0350914 0 0.219373 -0.0425978 0 0.221673 -0.0292245 0 0.219905 -0.0398144 0 0.221269 -0.0318846 0 0.220622 -0.0358159 0 0.181804 -0.0543272 0 0.187078 -0.0418848 0 0.183267 -0.0518544 0 0.18633 -0.0444408 0 0.184993 -0.0481703 0 0.127614 -0.0498938 0 0.131478 -0.0386202 0 0.128594 -0.0476226 0 0.130872 -0.0409222 0 0.129835 -0.0442809 0 0.170941 -0.0532639 0 0.176017 -0.0411821 0 0.172301 -0.0508557 0 0.175268 -0.0436642 0 0.173951 -0.0472801 0 0.138746 -0.0506614 0 0.142957 -0.0392421 0 0.13982 -0.0483669 0 0.142301 -0.041579 0 0.141175 -0.0449845 0 0.154917 -0.051882 0 0.159601 -0.04019 0 0.156132 -0.0495419 0 0.158885 -0.0425888 0 0.157644 -0.0460814 0 0.242241 -0.0634735 0 0.244211 -0.04566 0 0.242573 -0.0592686 0 0.243796 -0.0487981 0 0.243166 -0.0537413 0 0.187327 -0.0549128 0 0.192671 -0.0422513 0 0.18884 -0.0523997 0 0.191932 -0.0448512 0 0.190597 -0.0486492 0 0.230741 -0.0611086 0 0.234198 -0.0450376 0 0.231612 -0.0575496 0 0.233684 -0.0480503 0 0.232758 -0.0526495 0 0.19819 -0.0561556 0 0.203519 -0.0429791 0 0.199725 -0.0535291 0 0.202811 -0.0456729 0 0.201498 -0.04962 0 0.214291 -0.0583256 0 0.219087 -0.0440372 0 0.215645 -0.0553786 0 0.218457 -0.0468827 0 0.217262 -0.0511035 0 0.215347 -0.0772255 0 0.240444 -0.0653499 0 0.219655 -0.0750583 0 0.234228 -0.0680929 0 0.226421 -0.0717345 0 0.174665 -0.0677332 0 0.186437 -0.056175 0 0.177381 -0.0654624 0 0.184465 -0.0586062 0 0.181126 -0.0620781 0 0.208189 -0.0747749 0 0.229229 -0.0627707 0 0.212156 -0.0725566 0 0.224466 -0.0654881 0 0.218098 -0.0691642 0 0.183856 -0.0691971 0 0.197203 -0.0574666 0 0.186876 -0.0669204 0 0.194889 -0.0599631 0 0.191078 -0.0635031 0 0.196577 -0.0717166 0 0.213094 -0.0597651 0 0.200065 -0.0694516 0 0.209863 -0.0623779 0 0.205042 -0.0660145 0 0.154459 -0.0791223 0 0.168502 -0.068202 0 0.157459 -0.0769196 0 0.165804 -0.0704384 0 0.161714 -0.0736883 0 0.110167 -0.0744368 0 0.119444 -0.0632772 0 0.112199 -0.0721523 0 0.117722 -0.0655255 0 0.115045 -0.068829 0 0.145987 -0.0779699 0 0.158983 -0.0669847 0 0.148788 -0.0757451 0 0.156518 -0.0692242 0 0.152745 -0.0724887 0 0.119577 -0.0752253 0 0.129756 -0.0641017 0 0.121802 -0.0729528 0 0.127862 -0.0663478 0 0.124923 -0.0696431 0 0.133038 -0.0764983 0 0.144586 -0.065436 0 0.13555 -0.0742469 0 0.142424 -0.067679 0 0.139082 -0.0709606 0 0.193078 -0.0884431 0 0.213184 -0.0783183 0 0.197146 -0.0864382 0 0.209021 -0.0804319 0 0.203058 -0.0834647 0 0.158648 -0.0797645 0 0.173247 -0.0688818 0 0.16175 -0.0775744 0 0.17042 -0.0711164 0 0.16616 -0.0743576 0 0.187115 -0.0862592 0 0.206163 -0.0758948 0 0.190992 -0.0842059 0 0.202248 -0.0780594 0 0.196609 -0.081163 0 0.166565 -0.0811419 0 0.182287 -0.0703457 0 0.169866 -0.0789797 0 0.17919 -0.0725747 0 0.174583 -0.0757954 0 0.177373 -0.0834805 0 0.194776 -0.0728583 0 0.180964 -0.0813671 0 0.191264 -0.0750675 0 0.186135 -0.0782434 0 0.112138 -0.133509 0 0.111558 -0.126353 0 0.112042 -0.131791 0 0.111705 -0.127544 0 0.111884 -0.129524 0 0.0909654 -0.134891 0 0.095148 -0.125685 0 0.0915227 -0.132993 0 0.0939406 -0.127535 0 0.0925541 -0.130251 0 0.108012 -0.133987 0 0.108912 -0.126246 0 0.108083 -0.132234 0 0.108627 -0.12763 0 0.108285 -0.129833 0 0.0954552 -0.134776 0 0.0991801 -0.125853 0 0.0959173 -0.132916 0 0.0980657 -0.127628 0 0.0968106 -0.130249 0 0.101833 -0.13448 0 0.104424 -0.126068 0 0.102118 -0.132676 0 0.103629 -0.127683 0 0.102724 -0.130129 0 0.0863581 -0.145891 0 0.0883558 -0.135917 0 0.0867168 -0.143793 0 0.0878742 -0.137873 0 0.087262 -0.140794 0 0.0613829 -0.146272 0 0.0639683 -0.135952 0 0.0618333 -0.144139 0 0.0633563 -0.138016 0 0.0625507 -0.141059 0 0.0814258 -0.146015 0 0.0836468 -0.135976 0 0.0818175 -0.143913 0 0.0831088 -0.137956 0 0.0824232 -0.140902 0 0.0665871 -0.146231 0 0.0691598 -0.135979 0 0.0670349 -0.144107 0 0.068546 -0.138024 0 0.0677452 -0.141044 0 0.0740807 -0.146146 0 0.076535 -0.136001 0 0.0745087 -0.144034 0 0.0759432 -0.138015 0 0.0751813 -0.140998 0 0.112045 -0.144469 0 0.112179 -0.134438 0 0.112152 -0.142297 0 0.112232 -0.136326 0 0.112236 -0.139234 0 0.0888492 -0.145814 0 0.0907135 -0.13587 0 0.0891889 -0.143717 0 0.0902672 -0.137814 0 0.089699 -0.140723 0 0.107462 -0.144847 0 0.107984 -0.134917 0 0.107621 -0.142705 0 0.107921 -0.136797 0 0.107798 -0.13968 0 0.0936812 -0.145636 0 0.0952495 -0.135739 0 0.0939799 -0.143536 0 0.0948843 -0.137658 0 0.094414 -0.140548 0 0.10064 -0.145296 0 0.10171 -0.135423 0 0.100872 -0.143182 0 0.101486 -0.137314 0 0.101181 -0.140187 0 0.126568 -0.118833 0 0.14493 -0.110265 0 0.130023 -0.117198 0 0.140961 -0.112085 0 0.135351 -0.114692 0 0.107083 -0.114401 0 0.121208 -0.104361 0 0.109711 -0.112416 0 0.118129 -0.106445 0 0.113797 -0.109458 0 0.123437 -0.117652 0 0.141017 -0.108744 0 0.126732 -0.11594 0 0.137208 -0.110627 0 0.13183 -0.11333 0 0.111798 -0.115058 0 0.126849 -0.105271 0 0.114601 -0.113134 0 0.123573 -0.10731 0 0.118958 -0.110254 0 0.11805 -0.116212 0 0.134405 -0.106841 0 0.121103 -0.11439 0 0.130852 -0.108807 0 0.125841 -0.111638 0 0.0936563 -0.12463 0 0.103308 -0.115116 0 0.0952197 -0.122733 0 0.10099 -0.117087 0 0.0978985 -0.119931 0 0.0690528 -0.123651 0 0.0756651 -0.113061 0 0.0702112 -0.121539 0 0.0741444 -0.115246 0 0.0720789 -0.118413 0 0.0891268 -0.124418 0 0.0982014 -0.114608 0 0.0906275 -0.122461 0 0.0960447 -0.116636 0 0.0931571 -0.119568 0 0.0744742 -0.123833 0 0.081724 -0.113409 0 0.0757292 -0.121754 0 0.0800446 -0.115559 0 0.0777711 -0.118676 0 0.0820439 -0.124118 0 0.0902226 -0.113965 0 0.0834311 -0.122092 0 0.0883054 -0.11606 0 0.0857236 -0.119095 0 0.112026 -0.125824 0 0.124872 -0.119637 0 0.114154 -0.124791 0 0.121755 -0.121121 0 0.117682 -0.123079 0 0.0958611 -0.124739 0 0.105797 -0.115402 0 0.0974535 -0.122879 0 0.103397 -0.11734 0 0.100205 -0.120131 0 0.109474 -0.125598 0 0.121822 -0.1185 0 0.111508 -0.124318 0 0.118829 -0.120098 0 0.114899 -0.122293 0 0.0998907 -0.124952 0 0.110427 -0.116024 0 0.101576 -0.123183 0 0.10787 -0.117889 0 0.104483 -0.120561 0 0.105087 -0.12527 0 0.116555 -0.117121 0 0.106951 -0.1237 0 0.113773 -0.118863 0 0.110104 -0.121326 0 0.213023 -0.105227 0 0.193739 -0.0906578 0 0.210069 -0.101889 0 0.198691 -0.0931936 0 0.204926 -0.0973225 0 0.187562 -0.112996 0 0.172297 -0.100149 0 0.185346 -0.110045 0 0.176366 -0.102376 0 0.181361 -0.106013 0 0.207916 -0.10684 0 0.189473 -0.0926123 0 0.205119 -0.103581 0 0.194243 -0.0950883 0 0.200219 -0.0991206 0 0.19275 -0.111457 0 0.176702 -0.0982521 0 0.190392 -0.108428 0 0.180945 -0.100545 0 0.186183 -0.104285 0 0.200356 -0.109169 0 0.183125 -0.095448 0 0.197781 -0.106024 0 0.18763 -0.0978339 0 0.193232 -0.101722 0 0.191731 -0.131527 0 0.185882 -0.115312 0 0.190903 -0.128091 0 0.18752 -0.118421 0 0.189433 -0.123167 0 0.164759 -0.1364 0 0.160982 -0.122335 0 0.164254 -0.133408 0 0.162102 -0.12502 0 0.163346 -0.12913 0 0.186059 -0.13256 0 0.180677 -0.116778 0 0.185302 -0.129215 0 0.182197 -0.119803 0 0.183958 -0.124422 0 0.169993 -0.135457 0 0.165844 -0.120952 0 0.169427 -0.132376 0 0.167055 -0.123725 0 0.168417 -0.127966 0 0.177907 -0.134033 0 0.173167 -0.118887 0 0.177248 -0.130821 0 0.174525 -0.121787 0 0.176078 -0.126219 0 0.223118 -0.125571 0 0.214372 -0.106991 0 0.221847 -0.121634 0 0.216732 -0.110554 0 0.219587 -0.115992 0 0.19465 -0.130991 0 0.188554 -0.114556 0 0.193785 -0.12751 0 0.190254 -0.117708 0 0.192248 -0.122519 0 0.217361 -0.126705 0 0.209189 -0.108563 0 0.216181 -0.122861 0 0.211409 -0.112043 0 0.214078 -0.117353 0 0.200406 -0.129927 0 0.193811 -0.113059 0 0.199466 -0.126355 0 0.195637 -0.116295 0 0.197793 -0.121233 0 0.208883 -0.128335 0 0.20152 -0.110832 0 0.207827 -0.124628 0 0.203539 -0.11419 0 0.205945 -0.119314 0 0.169997 -0.0990991 0 0.190978 -0.0894602 0 0.17431 -0.097171 0 0.186807 -0.091443 0 0.180598 -0.094322 0 0.140763 -0.0916447 0 0.157036 -0.0808817 0 0.144126 -0.0894699 0 0.153823 -0.0830711 0 0.149015 -0.0862745 0 0.165051 -0.0972127 0 0.185111 -0.0873017 0 0.16918 -0.0952261 0 0.18113 -0.089336 0 0.175195 -0.0922941 0 0.147595 -0.0928206 0 0.164852 -0.0822435 0 0.151158 -0.0906877 0 0.16144 -0.0844 0 0.15634 -0.0875503 0 0.156838 -0.0948228 0 0.175513 -0.0845552 0 0.160688 -0.0927585 0 0.171814 -0.0866557 0 0.166292 -0.089717 0 0.119744 -0.102858 0 0.135467 -0.0922141 0 0.12284 -0.100726 0 0.132211 -0.0943971 0 0.127482 -0.0975751 0 0.0864385 -0.0996998 0 0.0971293 -0.0882551 0 0.0885165 -0.0973969 0 0.0948938 -0.0905906 0 0.0916622 -0.0940027 0 0.113487 -0.102088 0 0.128198 -0.0912497 0 0.116378 -0.099915 0 0.125147 -0.0934707 0 0.120719 -0.096706 0 0.093623 -0.100246 0 0.105333 -0.0889346 0 0.0959059 -0.097973 0 0.102889 -0.091246 0 0.0993539 -0.09462 0 0.103808 -0.101105 0 0.11702 -0.0900144 0 0.106395 -0.0988799 0 0.114272 -0.0922844 0 0.11029 -0.0955943 0 0.146994 -0.109328 0 0.167797 -0.100077 0 0.151102 -0.107481 0 0.163494 -0.101984 0 0.157245 -0.104748 0 0.122812 -0.10329 0 0.139046 -0.0927515 0 0.126011 -0.101179 0 0.135686 -0.0949136 0 0.130805 -0.0980603 0 0.142997 -0.107776 0 0.162944 -0.0982213 0 0.146939 -0.105866 0 0.158821 -0.100188 0 0.152831 -0.103042 0 0.128554 -0.104223 0 0.145775 -0.0939055 0 0.131953 -0.102157 0 0.142214 -0.0960238 0 0.137039 -0.0991049 0 0.136252 -0.10583 0 0.154871 -0.0958718 0 0.139932 -0.103838 0 0.151024 -0.0979187 0 0.145432 -0.100893 0 0.269272 -0.0893643 0 0.245175 -0.0672493 0 0.265694 -0.0848868 0 0.251692 -0.0717758 0 0.2595 -0.0783446 0 0.242721 -0.0956053 0 0.218727 -0.0786021 0 0.238954 -0.0917196 0 0.224805 -0.0815456 0 0.23251 -0.0863754 0 0.263533 -0.0903227 0 0.238546 -0.0698197 0 0.259796 -0.0859639 0 0.245193 -0.0737776 0 0.253304 -0.0797595 0 0.247823 -0.0940971 0 0.22318 -0.0764828 0 0.243983 -0.0900896 0 0.229456 -0.0795509 0 0.237389 -0.0845623 0 0.255504 -0.0920598 0 0.230263 -0.073274 0 0.251648 -0.0878742 0 0.236802 -0.0766636 0 0.244972 -0.0820481 0 0.253593 -0.119417 0 0.241873 -0.0984118 0 0.251831 -0.114977 0 0.244936 -0.102462 0 0.248739 -0.108613 0 0.226037 -0.124987 0 0.216992 -0.106181 0 0.22472 -0.121001 0 0.219425 -0.109788 0 0.222377 -0.115291 0 0.248084 -0.120503 0 0.23682 -0.0999436 0 0.246401 -0.116149 0 0.23978 -0.103896 0 0.243439 -0.109913 0 0.231718 -0.123835 0 0.22208 -0.104585 0 0.230305 -0.119753 0 0.224657 -0.108275 0 0.227799 -0.113908 0 0.239948 -0.12215 0 0.22946 -0.102247 0 0.238396 -0.117931 0 0.232239 -0.106064 0 0.235652 -0.111888 0 0.283083 -0.114628 0 0.27096 -0.091659 0 0.281173 -0.109839 0 0.274012 -0.0961967 0 0.277904 -0.102949 0 0.256391 -0.118881 0 0.244468 -0.0976479 0 0.254593 -0.114398 0 0.247577 -0.101751 0 0.251442 -0.107971 0 0.277704 -0.11532 0 0.265288 -0.0925826 0 0.275772 -0.110574 0 0.268447 -0.0970634 0 0.272444 -0.103746 0 0.261851 -0.11787 0 0.249604 -0.0961994 0 0.259992 -0.113308 0 0.252781 -0.100408 0 0.256746 -0.106762 0 0.2698 -0.116508 0 0.2573 -0.0942477 0 0.267882 -0.111844 0 0.260515 -0.098606 0 0.264553 -0.105142 0 0.114942 -0.061729 0 0.121385 -0.0506671 0 0.116445 -0.0594859 0 0.120283 -0.0529169 0 0.118473 -0.0562032 0 0.0622594 -0.0582712 0 0.0656126 -0.0473271 0 0.0630407 -0.0560253 0 0.0650367 -0.049523 0 0.0640948 -0.0527605 0 0.104397 -0.0609681 0 0.110191 -0.049941 0 0.105748 -0.0587259 0 0.109199 -0.0521772 0 0.107571 -0.0554499 0 0.0730759 -0.0589201 0 0.0770362 -0.0479618 0 0.0739989 -0.0566761 0 0.0763565 -0.0501662 0 0.0752441 -0.0534104 0 0.0888107 -0.0599135 0 0.0936763 -0.0489265 0 0.0899449 -0.0576713 0 0.0928421 -0.0511453 0 0.0914754 -0.0544019 0 0.121904 -0.0495165 0 0.125589 -0.0383107 0 0.122837 -0.0472559 0 0.125009 -0.0405963 0 0.12402 -0.0439329 0 0.0658846 -0.046211 0 0.0678529 -0.0355538 0 0.0663761 -0.044032 0 0.0675367 -0.0377018 0 0.0670043 -0.0408584 0 0.110659 -0.0487988 0 0.113994 -0.0377192 0 0.1115 -0.0465578 0 0.113466 -0.0399738 0 0.112569 -0.0432695 0 0.0773572 -0.04684 0 0.0796723 -0.0360846 0 0.0779365 -0.044647 0 0.0793016 -0.0382578 0 0.078676 -0.041447 0 0.0940698 -0.0477952 0 0.0968942 -0.0368854 0 0.0947793 -0.0455797 0 0.0964445 -0.0390977 0 0.0956828 -0.0423379 0 0.0939816 -0.0867212 0 0.104304 -0.0752263 0 0.09612 -0.0843753 0 0.102278 -0.0775392 0 0.0992294 -0.0809483 0 0.0511993 -0.0836621 0 0.0566855 -0.071937 0 0.0523369 -0.0812589 0 0.0556118 -0.074289 0 0.0539917 -0.07776 0 0.0854846 -0.0860676 0 0.0948152 -0.0745037 0 0.0874179 -0.0837049 0 0.092985 -0.0768281 0 0.0902296 -0.080256 0 0.0600418 -0.0842535 0 0.0664999 -0.0725553 0 0.0613807 -0.0818574 0 0.0652354 -0.0749026 0 0.0633284 -0.0783666 0 0.0728575 -0.0851436 0 0.0807465 -0.0735011 0 0.0744926 -0.0827615 0 0.0792005 -0.0758387 0 0.0768709 -0.079288 0 0.105316 -0.0740518 0 0.11414 -0.0628749 0 0.10725 -0.0717618 0 0.112503 -0.0651245 0 0.109958 -0.0684321 0 0.0572202 -0.070743 0 0.0618421 -0.0594226 0 0.0582394 -0.0684155 0 0.0609894 -0.0616896 0 0.0596598 -0.0650361 0 0.0957286 -0.0733238 0 0.103676 -0.0621145 0 0.0974733 -0.071024 0 0.102204 -0.064367 0 0.0999128 -0.0676825 0 0.06713 -0.071364 0 0.0725832 -0.0600699 0 0.0683314 -0.0690422 0 0.0715761 -0.0623328 0 0.0700068 -0.0656714 0 0.0815173 -0.0723147 0 0.0882052 -0.0610614 0 0.0829883 -0.0700028 0 0.0869683 -0.0633186 0 0.0850422 -0.0666458 0 0.0732706 -0.111757 0 0.0817336 -0.100604 0 0.0748345 -0.109527 0 0.0798661 -0.102899 0 0.0772674 -0.106231 0 0.0404439 -0.110095 0 0.044756 -0.0981143 0 0.0412368 -0.107682 0 0.0437959 -0.100556 0 0.0424708 -0.104127 0 0.0668705 -0.111407 0 0.0744414 -0.100089 0 0.0682679 -0.109142 0 0.0727671 -0.102415 0 0.0704419 -0.105795 0 0.0473348 -0.110421 0 0.0524449 -0.0986106 0 0.0482753 -0.108047 0 0.0513088 -0.101024 0 0.0497386 -0.104546 0 0.0572366 -0.110908 0 0.0635514 -0.0993446 0 0.0584003 -0.108589 0 0.0621509 -0.101714 0 0.060211 -0.105166 0 0.0827152 -0.0994268 0 0.0928905 -0.087919 0 0.0846901 -0.0971093 0 0.0907605 -0.0902656 0 0.0876829 -0.0936954 0 0.0452637 -0.0968683 0 0.0506194 -0.0848923 0 0.0462919 -0.0944286 0 0.0494892 -0.0873096 0 0.0478627 -0.090863 0 0.0753227 -0.0988968 0 0.0844983 -0.0872746 0 0.0770988 -0.0965521 0 0.0825737 -0.0896406 0 0.0797957 -0.0931021 0 0.0530451 -0.0973778 0 0.0593592 -0.0854795 0 0.0542593 -0.0949606 0 0.0580284 -0.0878869 0 0.056112 -0.0914211 0 0.0642901 -0.0981317 0 0.0720236 -0.0863614 0 0.0657817 -0.0957495 0 0.0703972 -0.0887507 0 0.0680527 -0.092252 0 0.0616 -0.134883 0 0.0656825 -0.12464 0 0.0622915 -0.132816 0 0.064706 -0.126739 0 0.063421 -0.129786 0 0.033969 -0.134746 0 0.0364622 -0.123992 0 0.0344208 -0.132602 0 0.0359015 -0.126222 0 0.0351314 -0.129435 0 0.0562053 -0.134848 0 0.0600332 -0.12449 0 0.0568662 -0.132763 0 0.0591328 -0.126617 0 0.0579341 -0.129701 0 0.0397626 -0.134768 0 0.0426384 -0.124107 0 0.040279 -0.132637 0 0.041986 -0.126311 0 0.0410954 -0.129494 0 0.0480928 -0.134805 0 0.0514796 -0.124289 0 0.0486907 -0.132695 0 0.0506989 -0.126455 0 0.049645 -0.12959 0 0.066214 -0.123562 0 0.0725035 -0.112888 0 0.0673221 -0.121435 0 0.0710621 -0.115091 0 0.0691011 -0.118283 0 0.0367593 -0.122841 0 0.0400541 -0.11132 0 0.0373639 -0.120559 0 0.0393185 -0.113706 0 0.0383054 -0.117161 0 0.0605199 -0.123397 0 0.0661847 -0.112557 0 0.0615281 -0.121238 0 0.0648947 -0.114795 0 0.0631345 -0.118038 0 0.0429855 -0.122971 0 0.0468728 -0.111626 0 0.0436943 -0.12072 0 0.0460012 -0.113974 0 0.0448034 -0.117374 0 0.0518979 -0.123174 0 0.0566652 -0.112084 0 0.0527576 -0.12097 0 0.0555886 -0.114377 0 0.054114 -0.117697 0 0.0521406 -0.0704336 0 0.0563416 -0.0591002 0 0.0530674 -0.0681035 0 0.0555667 -0.0613695 0 0.0543585 -0.06472 0 0.00257778 -0.0676115 0 0.00278293 -0.0561621 0 0.00262313 -0.0652626 0 0.00274516 -0.0584551 0 0.00268622 -0.0618436 0 0.0421482 -0.06984 0 0.0455295 -0.0584819 0 0.0428947 -0.0675053 0 0.0449063 -0.0607557 0 0.0439341 -0.0641139 0 0.0126777 -0.0681694 0 0.0136874 -0.0567427 0 0.0129009 -0.0658238 0 0.0135015 -0.0590308 0 0.0132114 -0.0624116 0 0.0274423 -0.068995 0 0.0296337 -0.057602 0 0.0279264 -0.0666545 0 0.02923 -0.0598829 0 0.0286002 -0.0632524 0 0.125859 -0.0371424 0 0.127807 -0.0258024 0 0.126341 -0.0348493 0 0.127481 -0.0281099 0 0.126953 -0.0314835 0 0.0680011 -0.0344596 0 0.0691123 -0.0239203 0 0.068269 -0.0323183 0 0.0689204 -0.0260581 0 0.0686154 -0.0291872 0 0.114239 -0.0365675 0 0.116033 -0.0254033 0 0.11468 -0.0343081 0 0.11573 -0.027674 0 0.115243 -0.0309941 0 0.0798459 -0.0349768 0 0.0811402 -0.0242869 0 0.0801591 -0.0328073 0 0.0809176 -0.0264569 0 0.0805631 -0.0296323 0 0.0971043 -0.0357564 0 0.0986557 -0.0248363 0 0.0974823 -0.0335434 0 0.0983911 -0.0270553 0 0.0979676 -0.0303011 0 0.0600143 -0.0458963 0 0.0618057 -0.0352872 0 0.0604611 -0.043724 0 0.0615175 -0.0374227 0 0.0610327 -0.0405633 0 0.00296192 -0.042994 0 0.00304998 -0.0328061 0 0.00298378 -0.0408782 0 0.00303572 -0.0348301 0 0.00301182 -0.0378291 0 0.0484835 -0.04529 0 0.0499288 -0.0347719 0 0.0488434 -0.0431303 0 0.0496958 -0.0368836 0 0.0493042 -0.0399939 0 0.0145684 -0.0435708 0 0.0150016 -0.0333012 0 0.0146759 -0.0414442 0 0.0149315 -0.035347 0 0.0148139 -0.0383736 0 0.0315466 -0.0444223 0 0.0324856 -0.034031 0 0.03178 -0.0422797 0 0.0323338 -0.0361093 0 0.0320792 -0.0391769 0 0.0586996 -0.14629 0 0.0612698 -0.135938 0 0.0591476 -0.144153 0 0.0606635 -0.13801 0 0.0598623 -0.141064 0 0.0319703 -0.146388 0 0.0337488 -0.135836 0 0.0322813 -0.144229 0 0.0333373 -0.137968 0 0.0327819 -0.141091 0 0.0533891 -0.14632 0 0.0558878 -0.135912 0 0.053825 -0.144176 0 0.0553018 -0.138001 0 0.0545224 -0.141073 0 0.0374933 -0.146377 0 0.0395115 -0.135852 0 0.037846 -0.14422 0 0.0390435 -0.137976 0 0.0384132 -0.141089 0 0.0454991 -0.146353 0 0.0478036 -0.13588 0 0.0459016 -0.144202 0 0.0472666 -0.137987 0 0.0465474 -0.141083 0 0.0291371 -0.146393 0 0.0307814 -0.135828 0 0.0294246 -0.144232 0 0.0304013 -0.137965 0 0.0298877 -0.141092 0 0.00144165 -0.146406 0 0.00152857 -0.135768 0 0.00145686 -0.144242 0 0.00150857 -0.137935 0 0.00148141 -0.141089 0 0.0235597 -0.146399 0 0.0249211 -0.135814 0 0.0237978 -0.144237 0 0.0246069 -0.137958 0 0.0241816 -0.141093 0 0.00708983 -0.146406 0 0.00751574 -0.135779 0 0.00716435 -0.144242 0 0.00741773 -0.13794 0 0.00728463 -0.14109 0 0.0153441 -0.146404 0 0.0162531 -0.135796 0 0.0155031 -0.144241 0 0.0160437 -0.137949 0 0.0157596 -0.141092 0 0.369904 -0.112107 0 0.369131 -0.0903992 0 0.369696 -0.107443 0 0.369242 -0.0945631 0 0.369443 -0.100866 0 0.343808 -0.112216 0 0.341066 -0.0901564 0 0.343219 -0.107496 0 0.341581 -0.0944013 0 0.34238 -0.100819 0 0.364615 -0.112134 0 0.363579 -0.0903792 0 0.36435 -0.107463 0 0.36374 -0.0945541 0 0.364017 -0.100873 0 0.349108 -0.112199 0 0.346921 -0.0902386 0 0.348621 -0.107495 0 0.347317 -0.094461 0 0.347944 -0.100847 0 0.356864 -0.112169 0 0.355332 -0.0903258 0 0.356501 -0.107484 0 0.355592 -0.0945214 0 0.356018 -0.100869 0 0.368747 -0.0673893 0 0.368575 -0.0498086 0 0.368704 -0.0637276 0 0.368601 -0.0532769 0 0.368648 -0.0584495 0 0.33876 -0.0668037 0 0.338106 -0.0493283 0 0.338539 -0.0631355 0 0.338158 -0.0527524 0 0.338302 -0.0578774 0 0.362973 -0.0673195 0 0.362739 -0.0497477 0 0.36291 -0.0636559 0 0.36277 -0.0532112 0 0.362831 -0.058379 0 0.345194 -0.0669778 0 0.344678 -0.049467 0 0.345026 -0.0633103 0 0.344724 -0.0529047 0 0.344842 -0.0580448 0 0.354264 -0.0671771 0 0.353909 -0.0496287 0 0.354157 -0.0635113 0 0.353948 -0.0530816 0 0.354033 -0.0582384 0 0.398629 -0.0882983 0 0.398628 -0.0694059 0 0.398628 -0.0843196 0 0.398628 -0.0731156 0 0.398628 -0.0786441 0 0.371903 -0.0883228 0 0.371664 -0.0693025 0 0.371836 -0.0843141 0 0.371699 -0.0730319 0 0.371759 -0.0785967 0 0.393253 -0.0883126 0 0.393245 -0.0693991 0 0.393248 -0.0843292 0 0.393245 -0.0731123 0 0.393246 -0.078647 0 0.377392 -0.0883312 0 0.377261 -0.0693439 0 0.377352 -0.0843306 0 0.377279 -0.0730686 0 0.37731 -0.0786243 0 0.385353 -0.088328 0 0.385311 -0.0693809 0 0.385337 -0.084337 0 0.385316 -0.0730996 0 0.385324 -0.078644 0 0.398722 -0.1397 0 0.398656 -0.114371 0 0.398706 -0.134335 0 0.398667 -0.119255 0 0.398685 -0.126664 0 0.374071 -0.139833 0 0.372708 -0.11453 0 0.373752 -0.134483 0 0.372936 -0.11942 0 0.373319 -0.126826 0 0.393713 -0.139725 0 0.393391 -0.114404 0 0.393635 -0.134364 0 0.393441 -0.119289 0 0.39353 -0.126696 0 0.379062 -0.139804 0 0.377971 -0.114499 0 0.378802 -0.134451 0 0.378149 -0.119387 0 0.378454 -0.126792 0 0.386383 -0.139764 0 0.38568 -0.114452 0 0.386213 -0.134406 0 0.385792 -0.119338 0 0.385987 -0.126743 0 0.398822 -0.169986 0 0.39873 -0.142471 0 0.398803 -0.164338 0 0.398748 -0.147959 0 0.398775 -0.156105 0 0.376022 -0.169993 0 0.374241 -0.142595 0 0.375648 -0.164371 0 0.374584 -0.148064 0 0.375108 -0.156176 0 0.394206 -0.169988 0 0.393755 -0.142495 0 0.39411 -0.164344 0 0.393841 -0.147979 0 0.393973 -0.156118 0 0.380661 -0.169992 0 0.3792 -0.142568 0 0.380354 -0.164364 0 0.379481 -0.148041 0 0.37991 -0.15616 0 0.38744 -0.169989 0 0.386474 -0.142531 0 0.387236 -0.164354 0 0.386658 -0.148009 0 0.386942 -0.156139 0 0.37365 -0.169994 0 0.371713 -0.14261 0 0.373244 -0.164375 0 0.372087 -0.148076 0 0.372657 -0.156184 0 0.350538 -0.170004 0 0.347439 -0.142779 0 0.349906 -0.164424 0 0.348064 -0.148221 0 0.348983 -0.156285 0 0.368993 -0.169996 0 0.366766 -0.142639 0 0.368528 -0.164384 0 0.367199 -0.148101 0 0.367855 -0.156201 0 0.355263 -0.170001 0 0.352339 -0.142739 0 0.354663 -0.164412 0 0.352922 -0.148187 0 0.353787 -0.156261 0 0.362147 -0.169998 0 0.359539 -0.142687 0 0.361606 -0.164397 0 0.360052 -0.148141 0 0.360821 -0.156229 0 0.344616 -0.140048 0 0.341433 -0.114688 0 0.343971 -0.134712 0 0.34208 -0.119618 0 0.343026 -0.127055 0 0.320414 -0.140416 0 0.315539 -0.114999 0 0.319576 -0.135108 0 0.316698 -0.119986 0 0.318224 -0.12746 0 0.339716 -0.140096 0 0.336183 -0.114711 0 0.339024 -0.134762 0 0.336928 -0.119655 0 0.337991 -0.127102 0 0.325355 -0.140306 0 0.320801 -0.114877 0 0.324547 -0.134987 0 0.321856 -0.119856 0 0.323269 -0.127329 0 0.332546 -0.140184 0 0.328496 -0.114767 0 0.331792 -0.134855 0 0.329394 -0.11973 0 0.330632 -0.127192 0 0.289912 -0.141794 0 0.283966 -0.117099 0 0.289023 -0.136682 0 0.28553 -0.121995 0 0.287461 -0.12928 0 0.262487 -0.144121 0 0.257212 -0.121192 0 0.261743 -0.139394 0 0.25865 -0.125759 0 0.260386 -0.132533 0 0.284507 -0.142186 0 0.278594 -0.117768 0 0.283637 -0.137137 0 0.280165 -0.122616 0 0.282092 -0.129821 0 0.268198 -0.143579 0 0.262702 -0.120221 0 0.267417 -0.138761 0 0.264193 -0.124871 0 0.265998 -0.13177 0 0.276436 -0.142842 0 0.27068 -0.118913 0 0.275605 -0.1379 0 0.272227 -0.12367 0 0.274112 -0.130735 0 0.321691 -0.170029 0 0.318289 -0.143209 0 0.32105 -0.164545 0 0.31905 -0.14859 0 0.320083 -0.156539 0 0.295989 -0.170083 0 0.293044 -0.144252 0 0.295481 -0.164812 0 0.293771 -0.149449 0 0.294686 -0.15711 0 0.316646 -0.170036 0 0.313296 -0.143352 0 0.316025 -0.164582 0 0.31406 -0.148708 0 0.315082 -0.156619 0 0.301389 -0.170068 0 0.298315 -0.143963 0 0.300849 -0.164739 0 0.299059 -0.149213 0 0.30001 -0.156954 0 0.309115 -0.17005 0 0.305882 -0.143618 0 0.308531 -0.164651 0 0.306642 -0.148928 0 0.307634 -0.156766 0 0.227463 -0.147649 0 0.223697 -0.127599 0 0.226923 -0.143525 0 0.224713 -0.131604 0 0.225948 -0.137532 0 0.197987 -0.150478 0 0.195051 -0.132784 0 0.197506 -0.146841 0 0.195777 -0.136321 0 0.196709 -0.141554 0 0.221465 -0.148243 0 0.2179 -0.128684 0 0.220943 -0.144221 0 0.218851 -0.132592 0 0.220014 -0.138375 0 0.203921 -0.149925 0 0.20084 -0.131767 0 0.203432 -0.146193 0 0.201618 -0.135397 0 0.202604 -0.140767 0 0.212675 -0.149096 0 0.209368 -0.130244 0 0.212173 -0.14522 0 0.210229 -0.134012 0 0.211299 -0.139586 0 0.261913 -0.170211 0 0.25987 -0.146806 0 0.261592 -0.165441 0 0.260419 -0.151524 0 0.261068 -0.158468 0 0.232368 -0.170344 0 0.230764 -0.149483 0 0.232111 -0.166095 0 0.231188 -0.153692 0 0.231695 -0.159882 0 0.255961 -0.170237 0 0.25405 -0.147331 0 0.255663 -0.16557 0 0.254567 -0.15195 0 0.255175 -0.158746 0 0.238382 -0.170317 0 0.236741 -0.148932 0 0.238124 -0.16596 0 0.237181 -0.153246 0 0.237702 -0.159591 0 0.247189 -0.170277 0 0.245438 -0.148124 0 0.246916 -0.165763 0 0.245913 -0.152592 0 0.24647 -0.159165 0 0.164279 -0.153469 0 0.162374 -0.13839 0 0.163926 -0.15036 0 0.162798 -0.141394 0 0.163381 -0.145849 0 0.139292 -0.155474 0 0.13878 -0.142296 0 0.139228 -0.152734 0 0.138928 -0.144895 0 0.139101 -0.148775 0 0.159008 -0.153914 0 0.157351 -0.139248 0 0.158701 -0.150886 0 0.15772 -0.142164 0 0.158228 -0.146495 0 0.14419 -0.155107 0 0.14337 -0.141575 0 0.144058 -0.152299 0 0.143576 -0.144249 0 0.143837 -0.148238 0 0.151497 -0.154532 0 0.150242 -0.140448 0 0.151272 -0.151617 0 0.15053 -0.143241 0 0.150919 -0.147396 0 0.197049 -0.170498 0 0.195205 -0.152593 0 0.196705 -0.166852 0 0.195623 -0.156206 0 0.196184 -0.16152 0 0.168877 -0.170609 0 0.167205 -0.15485 0 0.168549 -0.167398 0 0.167559 -0.158027 0 0.168061 -0.162703 0 0.191233 -0.170522 0 0.189354 -0.153078 0 0.190877 -0.166969 0 0.189771 -0.156598 0 0.19034 -0.161775 0 0.174484 -0.170588 0 0.172689 -0.154421 0 0.174133 -0.167294 0 0.173072 -0.157681 0 0.173611 -0.162479 0 0.182801 -0.170556 0 0.180921 -0.153765 0 0.182438 -0.167136 0 0.181329 -0.157152 0 0.181896 -0.162135 0 0.110822 -0.157179 0 0.111974 -0.1456 0 0.111113 -0.15475 0 0.111805 -0.147859 0 0.111492 -0.151258 0 0.0868021 -0.157948 0 0.0886727 -0.146902 0 0.087202 -0.155641 0 0.0883162 -0.149069 0 0.0877709 -0.152317 0 0.106012 -0.157379 0 0.107367 -0.145962 0 0.106341 -0.154984 0 0.107153 -0.14819 0 0.106778 -0.151541 0 0.0917411 -0.157833 0 0.0935225 -0.146727 0 0.0921332 -0.155509 0 0.0931957 -0.148901 0 0.0926822 -0.152164 0 0.0989119 -0.157629 0 0.100511 -0.146395 0 0.0992803 -0.155274 0 0.100236 -0.14859 0 0.0997837 -0.151888 0 0.136776 -0.170715 0 0.136826 -0.157045 0 0.136798 -0.167922 0 0.136833 -0.15979 0 0.136824 -0.163842 0 0.111519 -0.170778 0 0.11312 -0.158329 0 0.111861 -0.168229 0 0.112819 -0.160821 0 0.112351 -0.164509 0 0.131567 -0.17073 0 0.131974 -0.157348 0 0.131663 -0.167994 0 0.131911 -0.160032 0 0.131796 -0.163999 0 0.116564 -0.170767 0 0.117915 -0.158112 0 0.116855 -0.168176 0 0.117665 -0.160646 0 0.117271 -0.164396 0 0.124021 -0.17075 0 0.124929 -0.157753 0 0.124221 -0.16809 0 0.124767 -0.160358 0 0.124504 -0.164209 0 0.0566453 -0.158343 0 0.0584813 -0.14739 0 0.0569843 -0.156081 0 0.0580711 -0.149568 0 0.0575082 -0.152801 0 0.0306571 -0.158452 0 0.0318212 -0.147498 0 0.0308593 -0.1562 0 0.0315467 -0.149687 0 0.0311833 -0.152926 0 0.0514379 -0.158376 0 0.0531776 -0.147423 0 0.0517537 -0.156117 0 0.0527828 -0.149604 0 0.0522467 -0.152839 0 0.0359878 -0.158439 0 0.0373238 -0.147485 0 0.0362218 -0.156186 0 0.037011 -0.149673 0 0.0365949 -0.152912 0 0.0437465 -0.158413 0 0.045305 -0.14746 0 0.0440238 -0.156158 0 0.0449449 -0.149645 0 0.0444617 -0.152882 0 0.0820106 -0.170821 0 0.0840609 -0.159184 0 0.082431 -0.168441 0 0.0836512 -0.161518 0 0.083044 -0.164967 0 0.0575351 -0.170838 0 0.0591132 -0.159485 0 0.0578464 -0.168522 0 0.0587801 -0.161771 0 0.0583073 -0.165138 0 0.0770767 -0.170826 0 0.07907 -0.159267 0 0.0774823 -0.168463 0 0.0786673 -0.161588 0 0.0780756 -0.165014 0 0.0625454 -0.170835 0 0.0642484 -0.159443 0 0.062884 -0.168511 0 0.0638929 -0.161736 0 0.0633838 -0.165114 0 0.0698318 -0.170831 0 0.0716985 -0.159367 0 0.0702074 -0.16849 0 0.0713153 -0.161671 0 0.0707592 -0.16507 0 0.398623 -0.0482063 0 0.398621 -0.0320285 0 0.398622 -0.04481 0 0.39862 -0.0351915 0 0.398621 -0.0399371 0 0.371491 -0.0480838 0 0.371479 -0.0319552 0 0.371475 -0.0446956 0 0.371467 -0.0351076 0 0.371463 -0.0398372 0 0.393219 -0.0481915 0 0.393208 -0.0320171 0 0.393214 -0.0447954 0 0.393207 -0.0351791 0 0.393209 -0.0399234 0 0.37714 -0.048123 0 0.377121 -0.0319751 0 0.377126 -0.0447312 0 0.377113 -0.0351313 0 0.377114 -0.0398669 0 0.385246 -0.0481639 0 0.385227 -0.0319984 0 0.385236 -0.044769 0 0.385223 -0.0351583 0 0.385226 -0.0398995 0 0.398628 -0.067529 0 0.398624 -0.0499599 0 0.398627 -0.0638798 0 0.398625 -0.0534346 0 0.398626 -0.0586096 0 0.371646 -0.0674176 0 0.371502 -0.0498341 0 0.371613 -0.0637569 0 0.371525 -0.0533043 0 0.371566 -0.0584786 0 0.393244 -0.0675206 0 0.393221 -0.049945 0 0.393241 -0.0638689 0 0.393227 -0.05342 0 0.393235 -0.0585962 0 0.377251 -0.0674607 0 0.377149 -0.0498749 0 0.37723 -0.0638021 0 0.377168 -0.0533478 0 0.377198 -0.0585242 0 0.385307 -0.0675002 0 0.385252 -0.0499171 0 0.385299 -0.0638449 0 0.385264 -0.0533918 0 0.385282 -0.0585691 0 0.398652 -0.111939 0 0.39863 -0.0903653 0 0.398645 -0.107292 0 0.398632 -0.0944951 0 0.398637 -0.100753 0 0.372603 -0.112093 0 0.371943 -0.0904051 0 0.37242 -0.107432 0 0.372033 -0.0945641 0 0.372202 -0.100861 0 0.393368 -0.111972 0 0.393257 -0.0903819 0 0.393331 -0.107323 0 0.393267 -0.094516 0 0.393292 -0.100779 0 0.37789 -0.112064 0 0.377417 -0.0904092 0 0.377752 -0.107407 0 0.377476 -0.0945601 0 0.377592 -0.100845 0 0.38563 -0.112019 0 0.385364 -0.0904012 0 0.385547 -0.107367 0 0.385393 -0.0945427 0 0.385455 -0.100815 0 0.335561 -0.0143381 0 0.33623 -0.000699807 0 0.335692 -0.0115384 0 0.336091 -0.0034442 0 0.33589 -0.00747621 0 0.299921 -0.0142682 0 0.300805 -0.000698298 0 0.300105 -0.0114931 0 0.300629 -0.00343625 0 0.300369 -0.00745451 0 0.328807 -0.0143316 0 0.329525 -0.000699812 0 0.32895 -0.011535 0 0.329377 -0.00344414 0 0.329162 -0.00747532 0 0.307645 -0.0142933 0 0.30849 -0.000699093 0 0.307819 -0.0115108 0 0.30832 -0.00344028 0 0.308071 -0.00746427 0 0.318491 -0.0143175 0 0.319274 -0.000699671 0 0.31865 -0.0115268 0 0.319115 -0.00344329 0 0.318882 -0.00747221 0 0.368571 -0.0303611 0 0.368799 -0.0158149 0 0.368601 -0.0273076 0 0.368739 -0.0186755 0 0.368662 -0.0229389 0 0.338336 -0.0301949 0 0.338857 -0.0157807 0 0.338427 -0.0271804 0 0.338739 -0.0186253 0 0.338576 -0.0228565 0 0.362757 -0.0303375 0 0.363035 -0.0158085 0 0.362796 -0.0272888 0 0.362963 -0.0186668 0 0.362871 -0.0229259 0 0.344832 -0.0302401 0 0.345282 -0.0157882 0 0.344907 -0.0272142 0 0.345176 -0.0186372 0 0.345033 -0.0228774 0 0.35398 -0.0302947 0 0.354339 -0.0157986 0 0.354035 -0.0272556 0 0.354251 -0.0186528 0 0.354134 -0.0229038 0 0.334935 -0.0301692 0 0.335496 -0.0157767 0 0.335036 -0.0271612 0 0.335371 -0.0186189 0 0.335197 -0.0228448 0 0.29883 -0.0297687 0 0.299825 -0.0156911 0 0.299045 -0.0268533 0 0.299635 -0.0184948 0 0.299346 -0.0226436 0 0.328094 -0.0301124 0 0.328736 -0.0157681 0 0.328216 -0.0271191 0 0.328598 -0.0186048 0 0.328402 -0.0228192 0 0.306653 -0.0298789 0 0.307556 -0.0157207 0 0.306843 -0.0269406 0 0.307379 -0.018535 0 0.307114 -0.022704 0 0.317642 -0.0300102 0 0.318411 -0.0157501 0 0.317796 -0.0270422 0 0.318253 -0.018577 0 0.318024 -0.022771 0 0.294735 -0.0297051 0 0.295777 -0.0156723 0 0.294963 -0.0268023 0 0.29558 -0.01847 0 0.29528 -0.0226074 0 0.251432 -0.0287712 0 0.252867 -0.0153104 0 0.251764 -0.0260153 0 0.252611 -0.0180194 0 0.252208 -0.0220046 0 0.286507 -0.0295649 0 0.287639 -0.0156271 0 0.286759 -0.026688 0 0.287429 -0.0184115 0 0.287105 -0.0225245 0 0.260788 -0.0290144 0 0.262156 -0.0154156 0 0.261103 -0.0262248 0 0.261912 -0.0181476 0 0.261526 -0.0221706 0 0.273955 -0.0293177 0 0.275212 -0.0155378 0 0.27424 -0.0264824 0 0.274984 -0.0182986 0 0.274628 -0.0223702 0 0.246541 -0.028635 0 0.248006 -0.0152493 0 0.24688 -0.025897 0 0.247746 -0.0179454 0 0.247334 -0.0219097 0 0.195672 -0.0269756 0 0.197279 -0.0144399 0 0.196038 -0.0244278 0 0.196988 -0.0169794 0 0.196534 -0.0207013 0 0.236733 -0.0283449 0 0.238248 -0.0151148 0 0.237083 -0.0256431 0 0.237979 -0.0177835 0 0.237553 -0.0217043 0 0.206466 -0.0273513 0 0.208067 -0.0146295 0 0.206833 -0.0247632 0 0.20778 -0.0172044 0 0.207328 -0.0209802 0 0.221869 -0.0278715 0 0.223439 -0.0148872 0 0.222231 -0.0252254 0 0.223159 -0.0175112 0 0.222718 -0.0213623 0 0.127966 -0.0246239 0 0.129342 -0.0132153 0 0.128268 -0.0223128 0 0.129083 -0.0155332 0 0.128687 -0.0189249 0 0.0692069 -0.0228286 0 0.0700457 -0.012255 0 0.0693875 -0.0206873 0 0.0698847 -0.0144039 0 0.0696415 -0.0175477 0 0.116181 -0.0242436 0 0.117471 -0.0130133 0 0.116462 -0.0219691 0 0.117227 -0.0152954 0 0.116855 -0.0186344 0 0.0812498 -0.0231786 0 0.0822175 -0.0124435 0 0.0814587 -0.0210048 0 0.0820323 -0.0146253 0 0.0817519 -0.0178173 0 0.0987857 -0.0237029 0 0.099926 -0.0127248 0 0.099033 -0.0214798 0 0.0997088 -0.0149559 0 0.0993791 -0.0182201 0 0.190084 -0.0267789 0 0.191689 -0.0143398 0 0.190449 -0.0242519 0 0.191399 -0.0168607 0 0.190944 -0.0205546 0 0.133948 -0.0248217 0 0.135363 -0.01332 0 0.134259 -0.0224915 0 0.135097 -0.0156566 0 0.13469 -0.0190757 0 0.178993 -0.0263864 0 0.180585 -0.0141383 0 0.179352 -0.0239002 0 0.180295 -0.0166222 0 0.179842 -0.0202605 0 0.145597 -0.0252159 0 0.147077 -0.013528 0 0.145925 -0.0228471 0 0.146801 -0.0159016 0 0.146377 -0.0193757 0 0.162447 -0.0258016 0 0.163998 -0.0138349 0 0.162794 -0.0233747 0 0.163712 -0.0162637 0 0.163269 -0.0198197 0 0.129472 -0.012032 0 0.130653 -0.000592445 0 0.12972 -0.00971237 0 0.13042 -0.00291436 0 0.130074 -0.00631398 0 0.0701264 -0.0111579 0 0.0708758 -0.000549451 0 0.0702823 -0.00900703 0 0.0707265 -0.00270285 0 0.0705062 -0.00585564 0 0.117593 -0.0118483 0 0.118713 -0.00058343 0 0.117827 -0.00956424 0 0.11849 -0.00287 0 0.118162 -0.00621781 0 0.0823103 -0.0113296 0 0.0831704 -0.000557915 0 0.0824895 -0.00914568 0 0.0829991 -0.00274448 0 0.0827465 -0.00594581 0 0.100035 -0.0115856 0 0.101038 -0.000570522 0 0.100244 -0.00935238 0 0.100839 -0.0028065 0 0.100544 -0.00608018 0 0.0630434 -0.0226521 0 0.0638134 -0.0121597 0 0.063209 -0.0205272 0 0.0636655 -0.014292 0 0.0634421 -0.0174116 0 0.00311209 -0.0209942 0 0.0031515 -0.0112604 0 0.00312052 -0.0190209 0 0.00314389 -0.0132367 0 0.00313243 -0.0161296 0 0.0509346 -0.0223098 0 0.0515646 -0.0119746 0 0.0510698 -0.0202164 0 0.0514434 -0.0140747 0 0.0512604 -0.0171474 0 0.0153068 -0.0213265 0 0.0155003 -0.011441 0 0.0153482 -0.0193229 0 0.0154629 -0.0134486 0 0.0154067 -0.0163868 0 0.0331441 -0.0218154 0 0.0335597 -0.0117066 0 0.0332332 -0.0197673 0 0.0334796 -0.0137601 0 0.0333588 -0.0167652 0 0.348117 -0.170005 0 0.344944 -0.1428 0 0.347474 -0.16443 0 0.345589 -0.14824 0 0.346531 -0.156298 0 0.324238 -0.170025 0 0.32082 -0.143147 0 0.323589 -0.164528 0 0.321576 -0.148538 0 0.322612 -0.156504 0 0.343354 -0.170008 0 0.340065 -0.142846 0 0.342694 -0.164443 0 0.340743 -0.14828 0 0.341723 -0.156326 0 0.329181 -0.170019 0 0.32575 -0.143044 0 0.328518 -0.1645 0 0.326494 -0.14845 0 0.327529 -0.156444 0 0.336317 -0.170013 0 0.332921 -0.142929 0 0.335647 -0.164468 0 0.333638 -0.148352 0 0.334656 -0.156377 0 0.166041 -0.170619 0 0.164455 -0.155063 0 0.165729 -0.167449 0 0.16479 -0.158198 0 0.165266 -0.162814 0 0.139453 -0.170708 0 0.13932 -0.156883 0 0.139437 -0.167883 0 0.139363 -0.15966 0 0.139408 -0.163758 0 0.160531 -0.170639 0 0.15916 -0.155467 0 0.160261 -0.167546 0 0.15945 -0.158524 0 0.159861 -0.163025 0 0.144737 -0.170691 0 0.144252 -0.15655 0 0.144648 -0.167804 0 0.144365 -0.159393 0 0.144513 -0.163586 0 0.152572 -0.170666 0 0.151607 -0.156028 0 0.152385 -0.16768 0 0.151815 -0.158974 0 0.152106 -0.163316 0 0.0549652 -0.170839 0 0.0564773 -0.159503 0 0.0552622 -0.168527 0 0.0561565 -0.161786 0 0.0557029 -0.165149 0 0.0297238 -0.170844 0 0.030559 -0.159605 0 0.0298834 -0.168556 0 0.0303754 -0.161873 0 0.0301228 -0.165209 0 0.049902 -0.17084 0 0.0512823 -0.159534 0 0.0501713 -0.168536 0 0.0509867 -0.161813 0 0.0505718 -0.165167 0 0.0348966 -0.170844 0 0.035874 -0.159594 0 0.0350841 -0.168552 0 0.0356602 -0.161863 0 0.035365 -0.165202 0 0.0424292 -0.170842 0 0.0436109 -0.159569 0 0.0426576 -0.168546 0 0.0433548 -0.161843 0 0.0429987 -0.165188 0 0.0270765 -0.170845 0 0.0278384 -0.15961 0 0.0272218 -0.168557 0 0.0276704 -0.161877 0 0.0274399 -0.165211 0 0.00133657 -0.170845 0 0.00137444 -0.159624 0 0.00134373 -0.168561 0 0.001366 -0.161889 0 0.00135452 -0.16522 0 0.0218756 -0.170845 0 0.0224927 -0.159617 0 0.0219929 -0.168559 0 0.0223561 -0.161883 0 0.0221693 -0.165215 0 0.00657394 -0.170845 0 0.00676013 -0.159624 0 0.00660914 -0.168561 0 0.00671866 -0.161889 0 0.00666219 -0.165219 0 0.0142348 -0.170845 0 0.0146373 -0.159622 0 0.014311 -0.16856 0 0.0145479 -0.161887 0 0.0144258 -0.165218 0 0.248133 -0.0138764 0 0.24924 -0.000681489 0 0.248373 -0.011191 0 0.249026 -0.00335287 0 0.248707 -0.00726813 0 0.197421 -0.0131446 0 0.198681 -0.000646669 0 0.197692 -0.0106073 0 0.198436 -0.00318125 0 0.198071 -0.00689351 0 0.23838 -0.0137553 0 0.239523 -0.000675846 0 0.238628 -0.0110951 0 0.239302 -0.00332502 0 0.238972 -0.00720706 0 0.208208 -0.0133165 0 0.209446 -0.000654953 0 0.208475 -0.010745 0 0.209206 -0.00322205 0 0.208848 -0.00698232 0 0.223576 -0.0135498 0 0.224771 -0.00066612 0 0.223835 -0.0109315 0 0.22454 -0.00327707 0 0.224195 -0.00710226 0 0.398632 -0.0143978 0 0.398649 -0.000701638 0 0.398635 -0.0115802 0 0.398645 -0.00345352 0 0.39864 -0.00749896 0 0.371724 -0.0143715 0 0.372058 -0.000700451 0 0.371786 -0.0115597 0 0.371986 -0.00344765 0 0.371884 -0.007486 0 0.393263 -0.0143925 0 0.393345 -0.000701378 0 0.393278 -0.011576 0 0.393327 -0.00345224 0 0.393302 -0.00749619 0 0.377313 -0.0143769 0 0.377584 -0.000700664 0 0.377364 -0.0115637 0 0.377526 -0.00344871 0 0.377443 -0.00748843 0 0.385348 -0.0143847 0 0.385526 -0.000701008 0 0.385381 -0.0115698 0 0.385487 -0.00345042 0 0.385433 -0.00749221 0 0.398621 -0.0304397 0 0.39863 -0.0158474 0 0.398622 -0.0273746 0 0.398628 -0.0187155 0 0.398624 -0.0229913 0 0.371489 -0.0303716 0 0.371694 -0.0158181 0 0.371516 -0.0273161 0 0.371639 -0.0186797 0 0.37157 -0.0229449 0 0.39321 -0.0304288 0 0.393256 -0.0158416 0 0.393215 -0.0273648 0 0.393243 -0.0187086 0 0.393226 -0.022983 0 0.377128 -0.0303897 0 0.377289 -0.0158243 0 0.377148 -0.0273309 0 0.377245 -0.0186876 0 0.37719 -0.0229559 0 0.385231 -0.0304112 0 0.385333 -0.015833 0 0.385243 -0.0273492 0 0.385304 -0.0186984 0 0.385269 -0.0229702 0 0.108958 -0.170783 0 0.110665 -0.158431 0 0.109321 -0.168253 0 0.110343 -0.160903 0 0.109843 -0.164563 0 0.0845267 -0.170819 0 0.0865949 -0.159135 0 0.0849523 -0.168429 0 0.0861838 -0.161478 0 0.085572 -0.164941 0 0.103963 -0.170792 0 0.105837 -0.158613 0 0.104359 -0.168298 0 0.105479 -0.161051 0 0.104929 -0.164659 0 0.0894582 -0.170813 0 0.0915364 -0.159029 0 0.0898888 -0.168402 0 0.0911276 -0.16139 0 0.0905141 -0.164882 0 0.0966935 -0.170803 0 0.0987174 -0.158841 0 0.0971169 -0.168355 0 0.0983251 -0.161237 0 0.0977295 -0.164781 0 0.0335447 -0.122777 0 0.0365394 -0.111165 0 0.0340957 -0.12048 0 0.035872 -0.113572 0 0.0349521 -0.117055 0 0.00166996 -0.122217 0 0.00181621 -0.109712 0 0.00169724 -0.119765 0 0.00178391 -0.112317 0 0.00173921 -0.116082 0 0.0271822 -0.122657 0 0.0295927 -0.110865 0 0.0276279 -0.120328 0 0.0290572 -0.113312 0 0.028318 -0.116852 0 0.00820979 -0.122326 0 0.00892957 -0.110003 0 0.00834395 -0.119905 0 0.00877055 -0.112568 0 0.00855046 -0.116275 0 0.0177444 -0.122488 0 0.0193066 -0.110432 0 0.0180347 -0.120113 0 0.0189608 -0.112937 0 0.0184826 -0.11656 0 0.229304 -0.170358 0 0.227705 -0.149762 0 0.229045 -0.166163 0 0.228123 -0.153917 0 0.228627 -0.160029 0 0.200033 -0.170486 0 0.198214 -0.15234 0 0.199697 -0.166791 0 0.198632 -0.156002 0 0.199187 -0.161387 0 0.223313 -0.170385 0 0.2217 -0.150304 0 0.223044 -0.166295 0 0.222112 -0.154355 0 0.222617 -0.160315 0 0.205911 -0.170461 0 0.20415 -0.151837 0 0.205593 -0.166668 0 0.204564 -0.155596 0 0.205105 -0.161123 0 0.214581 -0.170423 0 0.212906 -0.151081 0 0.21429 -0.166484 0 0.213316 -0.154984 0 0.213836 -0.160724 0 0.0412656 -0.0966098 0 0.0461351 -0.0845966 0 0.0421996 -0.0941589 0 0.0451069 -0.0870184 0 0.0436276 -0.0905807 0 0.00204488 -0.0941445 0 0.00228308 -0.0818302 0 0.0020904 -0.091593 0 0.00223265 -0.0842797 0 0.00216018 -0.0879085 0 0.0333845 -0.0961056 0 0.0373063 -0.0840241 0 0.0341358 -0.0936333 0 0.0364774 -0.0864533 0 0.0352854 -0.0900316 0 0.0100556 -0.0946419 0 0.0112278 -0.0823837 0 0.0102796 -0.0921101 0 0.0109796 -0.0848288 0 0.010623 -0.0884458 0 0.0217554 -0.0953719 0 0.0242986 -0.0831987 0 0.0222419 -0.0928694 0 0.0237606 -0.0856367 0 0.0229872 -0.0892355 0 0.293191 -0.170091 0 0.290318 -0.144417 0 0.292701 -0.164853 0 0.291033 -0.149584 0 0.291928 -0.157199 0 0.264934 -0.170198 0 0.262818 -0.146544 0 0.2646 -0.165377 0 0.263383 -0.151312 0 0.264055 -0.15833 0 0.287628 -0.17011 0 0.284902 -0.144776 0 0.28717 -0.164942 0 0.285593 -0.149876 0 0.286445 -0.157391 0 0.270814 -0.170173 0 0.268547 -0.14605 0 0.270451 -0.165256 0 0.269146 -0.150911 0 0.269863 -0.158068 0 0.279307 -0.17014 0 0.27681 -0.145376 0 0.278898 -0.16509 0 0.277457 -0.150364 0 0.278243 -0.157711 0 </DataArray> 
</PointData> 
<Points> 
<DataArray type="Float32" NumberOfComponents="3"> 
0.141802 0.338029 0 0.149417 0.274223 0 0.143576 0.324922 0 0.148109 0.28701 0 0.14597 0.305878 0 0.0070035 0.320829 0 0.00737459 0.257165 0 0.00708992 0.307629 0 0.00731076 0.269775 0 0.00720651 0.288541 0 0.114586 0.334411 0 0.120711 0.270657 0 0.116013 0.321288 0 0.119659 0.283402 0 0.117938 0.302242 0 0.0344457 0.32423 0 0.0362722 0.260553 0 0.0348711 0.311051 0 0.0359581 0.273195 0 0.035445 0.291976 0 0.0745776 0.329261 0 0.0785439 0.265557 0 0.0755015 0.316112 0 0.077862 0.278247 0 0.0767478 0.297054 0 0.734206 0.270146 0 0.736539 0.181998 0 0.734484 0.25154 0 0.735945 0.199256 0 0.735129 0.22503 0 0.623489 0.258894 0 0.628134 0.17607 0 0.624413 0.241362 0 0.627217 0.192313 0 0.625817 0.216485 0 0.71315 0.268346 0 0.715933 0.181093 0 0.713535 0.249896 0 0.715265 0.198167 0 0.714323 0.223655 0 0.647362 0.261742 0 0.651548 0.177596 0 0.648139 0.2439 0 0.650684 0.194065 0 0.649388 0.218608 0 0.681025 0.26533 0 0.684507 0.179514 0 0.681595 0.247142 0 0.683734 0.196297 0 0.682609 0.221336 0 0.154852 0.199499 0 0.157392 0.138457 0 0.155463 0.187089 0 0.156952 0.150833 0 0.156255 0.168952 0 0.00764173 0.185381 0 0.00776922 0.128338 0 0.00767217 0.17371 0 0.00774695 0.139847 0 0.00771178 0.156734 0 0.125096 0.196568 0 0.127159 0.136367 0 0.125591 0.184315 0 0.126801 0.148562 0 0.126233 0.166422 0 0.0375865 0.1882 0 0.038213 0.130366 0 0.0377361 0.176382 0 0.0381036 0.142046 0 0.0379308 0.159177 0 0.0813924 0.192353 0 0.082744 0.133349 0 0.0817157 0.180321 0 0.0825084 0.145284 0 0.082136 0.162776 0 0.758986 0.510238 0 0.739773 0.392 0 0.75458 0.48507 0 0.742848 0.414741 0 0.74835 0.449243 0 0.680737 0.518939 0 0.624662 0.388176 0 0.672123 0.492667 0 0.639483 0.415187 0 0.657499 0.454132 0 0.742758 0.510498 0 0.719178 0.390551 0 0.73751 0.485012 0 0.723159 0.413647 0 0.729983 0.448675 0 0.695986 0.515311 0 0.651265 0.388145 0 0.688197 0.489164 0 0.661841 0.413751 0 0.675777 0.451315 0 0.719104 0.511985 0 0.686865 0.388935 0 0.712576 0.486104 0 0.693233 0.412973 0 0.702849 0.449034 0 0.335315 0.751177 0 0.315611 0.701675 0 0.332905 0.739498 0 0.321443 0.709922 0 0.328108 0.723774 0 0.285547 0.777079 0 0.281833 0.735894 0 0.285072 0.767051 0 0.282855 0.742613 0 0.284121 0.753925 0 0.325107 0.757577 0 0.307582 0.710063 0 0.323027 0.74632 0 0.312841 0.717947 0 0.318807 0.73121 0 0.295654 0.773104 0 0.287575 0.730337 0 0.294729 0.762813 0 0.28994 0.737363 0 0.292754 0.749183 0 0.310353 0.766002 0 0.296958 0.720979 0 0.30882 0.755276 0 0.300987 0.728432 0 0.305606 0.740949 0 0.0774614 0.785956 0 0.0831836 0.722958 0 0.0785023 0.773414 0 0.0819017 0.736041 0 0.0801362 0.754876 0 0.00384803 0.785486 0 0.00414105 0.720103 0 0.00390229 0.772658 0 0.00407657 0.733891 0 0.00398664 0.753536 0 0.0627219 0.785846 0 0.0674055 0.722339 0 0.0635794 0.77324 0 0.0663629 0.735567 0 0.0649206 0.754573 0 0.0189198 0.785572 0 0.0203581 0.720654 0 0.0191859 0.772797 0 0.0200413 0.734301 0 0.0195998 0.753787 0 0.0409116 0.785703 0 0.0440016 0.721478 0 0.0414811 0.773008 0 0.0433184 0.734917 0 0.0423687 0.754166 0 0.928819 0.815781 0 0.925057 0.668184 0 0.927944 0.78458 0 0.925694 0.696715 0 0.926754 0.739919 0 0.867803 0.816819 0 0.86028 0.668948 0 0.866254 0.785686 0 0.86178 0.697675 0 0.864003 0.741024 0 0.916377 0.815964 0 0.911904 0.668356 0 0.915356 0.784779 0 0.912684 0.69691 0 0.913954 0.740126 0 0.880112 0.816578 0 0.873411 0.668812 0 0.878689 0.785433 0 0.8747 0.69748 0 0.876658 0.740781 0 0.898208 0.816255 0 0.892652 0.668594 0 0.896981 0.785091 0 0.893667 0.697195 0 0.895266 0.740444 0 0.921411 0.280347 0 0.921397 0.186337 0 0.92137 0.260596 0 0.921358 0.204712 0 0.921342 0.232278 0 0.845231 0.277693 0 0.845731 0.185235 0 0.845222 0.258253 0 0.845539 0.203319 0 0.845325 0.230416 0 0.906818 0.280008 0 0.906853 0.186184 0 0.906776 0.260294 0 0.906795 0.204522 0 0.906758 0.232032 0 0.86166 0.278457 0 0.861993 0.185537 0 0.861636 0.258924 0 0.861846 0.203707 0 0.861695 0.230943 0 0.88474 0.279349 0 0.884891 0.185901 0 0.884703 0.259709 0 0.884797 0.204169 0 0.884714 0.231564 0 0.922703 0.515168 0 0.921924 0.404105 0 0.922491 0.491755 0 0.922041 0.425875 0 0.92224 0.458367 0 0.852035 0.513512 0 0.847235 0.40075 0 0.850862 0.489647 0 0.847989 0.42272 0 0.849311 0.455666 0 0.908763 0.515018 0 0.907522 0.403709 0 0.908438 0.491542 0 0.907712 0.42551 0 0.908038 0.458069 0 0.866822 0.514057 0 0.863236 0.401751 0 0.865936 0.490316 0 0.863797 0.42367 0 0.864778 0.456496 0 0.888024 0.514645 0 0.885816 0.402895 0 0.887466 0.491054 0 0.886158 0.42475 0 0.886753 0.457428 0 0.73969 0.0831372 0 0.74195 0.0040701 0 0.740163 0.0669746 0 0.741502 0.0200282 0 0.74084 0.0434456 0 0.632479 0.0812662 0 0.635198 0.0039901 0 0.633068 0.0655338 0 0.634672 0.0196312 0 0.633887 0.0425576 0 0.719357 0.0829083 0 0.721714 0.00406145 0 0.719856 0.0668049 0 0.72125 0.0199849 0 0.720562 0.0433458 0 0.655691 0.0818155 0 0.658318 0.00401495 0 0.656258 0.0659646 0 0.657809 0.0197541 0 0.65705 0.0428289 0 0.68831 0.0824494 0 0.690803 0.00404262 0 0.688844 0.066456 0 0.690317 0.0198912 0 0.689593 0.0431341 0 0.159719 0.0645815 0 0.161443 0.00318016 0 0.160077 0.0521322 0 0.161099 0.0156438 0 0.160592 0.0338919 0 0.00788831 0.0598018 0 0.00797748 0.00294398 0 0.00790681 0.0482692 0 0.00795967 0.0144822 0 0.00793343 0.0313773 0 0.129064 0.0635979 0 0.13048 0.00313161 0 0.129358 0.0513376 0 0.130197 0.015405 0 0.129781 0.0333748 0 0.0387976 0.0607619 0 0.039235 0.00299146 0 0.0388883 0.0490454 0 0.0391476 0.0147157 0 0.0390189 0.0318827 0 0.084 0.0621735 0 0.0849379 0.00306125 0 0.0841947 0.0501865 0 0.0847506 0.0150589 0 0.0844747 0.0326256 0 0.794699 0.819483 0 0.782125 0.671302 0 0.792569 0.788564 0 0.78515 0.700404 0 0.789103 0.743988 0 0.731584 0.826078 0 0.716747 0.681317 0 0.729346 0.796096 0 0.720628 0.709998 0 0.725436 0.752692 0 0.7822 0.820377 0 0.768933 0.672477 0 0.780014 0.789568 0 0.772194 0.70158 0 0.776398 0.745109 0 0.744747 0.824244 0 0.730095 0.678315 0 0.742494 0.793981 0 0.733879 0.707183 0 0.738605 0.750201 0 0.763655 0.822054 0 0.749556 0.674898 0 0.761416 0.791471 0 0.753117 0.703935 0 0.757627 0.747281 0 0.342041 0.907976 0 0.341154 0.832116 0 0.341966 0.892184 0 0.341452 0.847055 0 0.34177 0.869386 0 0.283163 0.916226 0 0.285753 0.848126 0 0.283835 0.901942 0 0.285392 0.861416 0 0.284698 0.881408 0 0.33 0.909922 0 0.32988 0.835943 0 0.330094 0.894491 0 0.330037 0.850477 0 0.330134 0.872239 0 0.295088 0.914833 0 0.29706 0.845493 0 0.295633 0.900301 0 0.296823 0.859039 0 0.296312 0.879401 0 0.312512 0.912529 0 0.313478 0.841044 0 0.312843 0.897578 0 0.313434 0.855043 0 0.313217 0.876051 0 0.0698205 0.92433 0 0.0724981 0.860431 0 0.0702839 0.911197 0 0.0718648 0.873205 0 0.071028 0.892103 0 0.00344746 0.924418 0 0.00358597 0.860517 0 0.00347103 0.911292 0 0.00355276 0.8733 0 0.00350926 0.892203 0 0.0564147 0.924372 0 0.0586143 0.860472 0 0.056793 0.911242 0 0.0580914 0.87325 0 0.0574028 0.89215 0 0.0169561 0.924416 0 0.0176356 0.860516 0 0.0170718 0.91129 0 0.0174728 0.873299 0 0.0172595 0.892201 0 0.0367134 0.924405 0 0.0381702 0.860504 0 0.0369624 0.911278 0 0.0378221 0.873286 0 0.0373653 0.892188 0 0.479582 0.076147 0 0.482754 0.00374661 0 0.480262 0.0614507 0 0.482135 0.0184311 0 0.481215 0.0399377 0 0.338737 0.0707424 0 0.341756 0.00348317 0 0.339372 0.0571033 0 0.341159 0.0171344 0 0.340276 0.0371222 0 0.451822 0.0750803 0 0.455019 0.00369489 0 0.452505 0.0605942 0 0.454394 0.0181765 0 0.453465 0.0393841 0 0.368036 0.0718455 0 0.37115 0.00353717 0 0.368693 0.057992 0 0.370535 0.0174002 0 0.369626 0.0376986 0 0.410349 0.0734729 0 0.413537 0.00361665 0 0.411026 0.0593019 0 0.412911 0.0177913 0 0.411982 0.0385476 0 0.468554 0.236726 0 0.474722 0.163737 0 0.470093 0.221858 0 0.473708 0.178498 0 0.472044 0.200149 0 0.329398 0.218418 0 0.334458 0.151725 0 0.330655 0.204937 0 0.333614 0.165299 0 0.332247 0.185143 0 0.440904 0.232831 0 0.447001 0.161323 0 0.442438 0.218328 0 0.446006 0.175833 0 0.444369 0.197082 0 0.358152 0.221938 0 0.363558 0.15414 0 0.359504 0.208241 0 0.362665 0.167942 0 0.36121 0.18812 0 0.399829 0.227282 0 0.405656 0.157732 0 0.401297 0.213223 0 0.404703 0.171881 0 0.403141 0.192577 0 0.424623 0.391147 0 0.452388 0.324168 0 0.431048 0.377925 0 0.447727 0.338186 0 0.439869 0.358272 0 0.300721 0.362433 0 0.317671 0.297787 0 0.304675 0.349343 0 0.314772 0.310955 0 0.310012 0.330171 0 0.400511 0.384051 0 0.425412 0.3178 0 0.406294 0.370869 0 0.421205 0.331549 0 0.414179 0.351364 0 0.326711 0.367243 0 0.345369 0.302324 0 0.331064 0.354139 0 0.342182 0.315592 0 0.336942 0.33491 0 0.364124 0.375023 0 0.385588 0.309562 0 0.369126 0.361887 0 0.381936 0.323024 0 0.375899 0.342545 0 0.922081 0.0838177 0 0.922993 0.00408538 0 0.922251 0.0674195 0 0.922798 0.0201084 0 0.922518 0.0436615 0 0.847299 0.0836561 0 0.848908 0.00408221 0 0.847613 0.0673165 0 0.848573 0.0200914 0 0.848087 0.0436138 0 0.907685 0.0837858 0 0.908748 0.00408435 0 0.907884 0.0673968 0 0.908522 0.0201032 0 0.908196 0.043649 0 0.863347 0.0836899 0 0.864826 0.00408242 0 0.863632 0.0673354 0 0.864515 0.0200929 0 0.864066 0.0436202 0 0.885966 0.0837383 0 0.887244 0.00408316 0 0.886209 0.0673651 0 0.886973 0.020097 0 0.886583 0.0436329 0 0.221568 0.787089 0 0.232371 0.732628 0 0.223062 0.775905 0 0.229333 0.743615 0 0.225776 0.759706 0 0.160757 0.786926 0 0.171248 0.72754 0 0.162514 0.774934 0 0.168714 0.739696 0 0.165402 0.75736 0 0.209872 0.787345 0 0.221092 0.731568 0 0.211517 0.775958 0 0.218074 0.74288 0 0.21442 0.759398 0 0.173744 0.787146 0 0.184697 0.728512 0 0.175532 0.775283 0 0.181996 0.740494 0 0.178515 0.757921 0 0.19216 0.787375 0 0.203486 0.730016 0 0.193927 0.775731 0 0.200587 0.741704 0 0.196947 0.758729 0 0.21067 0.921669 0 0.215433 0.857373 0 0.211674 0.908253 0 0.214509 0.87 0 0.213113 0.888911 0 0.148218 0.923553 0 0.152907 0.859665 0 0.149092 0.910349 0 0.151869 0.872355 0 0.150436 0.891212 0 0.198187 0.922197 0 0.203068 0.858099 0 0.199188 0.908848 0 0.20209 0.870717 0 0.200645 0.889583 0 0.161082 0.923296 0 0.165917 0.859406 0 0.162003 0.910069 0 0.164869 0.87207 0 0.163401 0.890916 0 0.179739 0.922821 0 0.184668 0.85888 0 0.180712 0.909545 0 0.183638 0.871511 0 0.182159 0.890352 0 0.0922322 0.641257 0 0.102011 0.570864 0 0.0940298 0.627068 0 0.0998326 0.585195 0 0.0968272 0.606171 0 0.00458322 0.632186 0 0.00505615 0.556841 0 0.00467 0.616853 0 0.00495045 0.571984 0 0.00480507 0.594367 0 0.0746903 0.639389 0 0.0825349 0.567997 0 0.0761315 0.624972 0 0.0807853 0.582495 0 0.0783742 0.603756 0 0.0225342 0.634007 0 0.024863 0.559671 0 0.0229616 0.618909 0 0.0243426 0.574651 0 0.0236267 0.596748 0 0.0487239 0.636686 0 0.0537891 0.563824 0 0.0496538 0.62193 0 0.0526581 0.578564 0 0.0511011 0.600242 0 0.261374 0.665582 0 0.295481 0.606317 0 0.267718 0.653838 0 0.288041 0.618599 0 0.27758 0.636366 0 0.191187 0.652976 0 0.213512 0.588403 0 0.195315 0.640072 0 0.208591 0.601699 0 0.201737 0.620992 0 0.248387 0.662457 0 0.280101 0.601938 0 0.25428 0.650424 0 0.273171 0.614452 0 0.263442 0.63257 0 0.206548 0.655111 0 0.231214 0.591498 0 0.211115 0.642408 0 0.22579 0.604608 0 0.218218 0.623619 0 0.228116 0.658513 0 0.256291 0.596368 0 0.233342 0.646122 0 0.250116 0.609192 0 0.24147 0.627775 0 0.46231 0.663676 0 0.425126 0.589812 0 0.456944 0.646704 0 0.435078 0.602609 0 0.447263 0.623517 0 0.400768 0.705887 0 0.372071 0.642817 0 0.396883 0.691294 0 0.380061 0.653638 0 0.389592 0.671436 0 0.449459 0.672474 0 0.414146 0.600742 0 0.444427 0.655973 0 0.423676 0.613148 0 0.435279 0.633443 0 0.412797 0.697559 0 0.382543 0.63224 0 0.408649 0.68247 0 0.390904 0.643471 0 0.400926 0.661918 0 0.430904 0.685145 0 0.398205 0.616587 0 0.426333 0.669343 0 0.407137 0.628412 0 0.417925 0.647792 0 0.487445 0.879402 0 0.48029 0.777556 0 0.486256 0.85847 0 0.482038 0.797916 0 0.4843 0.828037 0 0.417548 0.89387 0 0.412496 0.804664 0 0.416613 0.87549 0 0.413623 0.822446 0 0.41517 0.848805 0 0.472824 0.882509 0 0.466034 0.783312 0 0.471662 0.862118 0 0.467655 0.80314 0 0.469784 0.832476 0 0.431219 0.891116 0 0.425652 0.799432 0 0.430201 0.872243 0 0.426907 0.817728 0 0.428619 0.844828 0 0.451762 0.886909 0 0.445543 0.791515 0 0.450657 0.867291 0 0.446981 0.810572 0 0.44891 0.838778 0 0.116657 0.486294 0 0.129136 0.417834 0 0.119244 0.472258 0 0.126694 0.431566 0 0.123009 0.451829 0 0.00577244 0.470099 0 0.00638488 0.401413 0 0.00589948 0.455987 0 0.00626517 0.415197 0 0.00608432 0.435503 0 0.0943292 0.482937 0 0.104391 0.414383 0 0.0964158 0.468875 0 0.102423 0.428133 0 0.0994516 0.448419 0 0.0283879 0.473335 0 0.0314012 0.404662 0 0.029013 0.459231 0 0.0308122 0.41844 0 0.0299224 0.438747 0 0.0614371 0.478103 0 0.0679701 0.409467 0 0.0627921 0.464015 0 0.0666927 0.423235 0 0.0647636 0.443537 0 0.34283 0.531398 0 0.382247 0.468106 0 0.350977 0.518597 0 0.374469 0.480966 0 0.362824 0.499797 0 0.245685 0.507865 0 0.272762 0.441048 0 0.251294 0.494238 0 0.267445 0.454501 0 0.259449 0.474322 0 0.324396 0.525662 0 0.361321 0.461456 0 0.332033 0.512651 0 0.354042 0.474474 0 0.343135 0.493564 0 0.266458 0.511898 0 0.296036 0.445607 0 0.272583 0.498397 0 0.290223 0.458974 0 0.281488 0.478649 0 0.296065 0.518315 0 0.329319 0.452962 0 0.302948 0.505037 0 0.322774 0.466173 0 0.312953 0.485586 0 0.600373 0.562323 0 0.541255 0.464777 0 0.591074 0.54001 0 0.556199 0.481673 0 0.575177 0.509363 0 0.53901 0.608977 0 0.489719 0.522987 0 0.531424 0.589276 0 0.502335 0.537953 0 0.518253 0.562322 0 0.587877 0.571568 0 0.530564 0.476908 0 0.578856 0.549888 0 0.545021 0.493329 0 0.563422 0.520173 0 0.551537 0.599423 0 0.50013 0.51145 0 0.543558 0.579263 0 0.513207 0.526756 0 0.529774 0.551685 0 0.569716 0.585411 0 0.515271 0.494341 0 0.561184 0.564538 0 0.529031 0.510168 0 0.546534 0.535976 0 0.648871 0.842375 0 0.635993 0.709954 0 0.647061 0.815083 0 0.639511 0.736342 0 0.643752 0.775466 0 0.576294 0.859501 0 0.566593 0.741069 0 0.574914 0.835136 0 0.569224 0.764718 0 0.572411 0.799732 0 0.634367 0.845735 0 0.622128 0.716021 0 0.632655 0.819013 0 0.62548 0.741884 0 0.629515 0.780214 0 0.591209 0.855975 0 0.580903 0.734635 0 0.589759 0.831004 0 0.583716 0.758857 0 0.58711 0.794726 0 0.6129 0.850809 0 0.601637 0.725228 0 0.611326 0.824954 0 0.604724 0.750283 0 0.608438 0.7874 0 0.836616 0.277249 0 0.837216 0.185062 0 0.836617 0.257865 0 0.836998 0.203096 0 0.836748 0.230112 0 0.744676 0.271 0 0.746793 0.182411 0 0.744907 0.252315 0 0.746238 0.199758 0 0.745484 0.225672 0 0.81926 0.27627 0 0.820086 0.184681 0 0.819283 0.257007 0 0.81981 0.202605 0 0.819477 0.229441 0 0.764659 0.272559 0 0.766386 0.183131 0 0.764814 0.25372 0 0.765906 0.200645 0 0.765271 0.226821 0 0.792676 0.274573 0 0.793908 0.183998 0 0.792751 0.255513 0 0.793535 0.201733 0 0.793061 0.228261 0 0.738487 0.380666 0 0.73413 0.279817 0 0.736536 0.358986 0 0.734159 0.299144 0 0.734823 0.328422 0 0.620449 0.374349 0 0.623034 0.268048 0 0.620466 0.349037 0 0.622152 0.2866 0 0.621063 0.315966 0 0.717599 0.379049 0 0.713017 0.27795 0 0.715451 0.35714 0 0.712951 0.297173 0 0.713585 0.32642 0 0.648031 0.375186 0 0.646999 0.271055 0 0.64686 0.351184 0 0.646397 0.289807 0 0.646109 0.319043 0 0.684647 0.376911 0 0.680787 0.274814 0 0.682618 0.354272 0 0.680504 0.293837 0 0.680895 0.323053 0 0.838485 0.389094 0 0.836649 0.287278 0 0.837853 0.367695 0 0.836786 0.307205 0 0.837184 0.337048 0 0.748763 0.381525 0 0.744624 0.280704 0 0.746972 0.359915 0 0.744691 0.300082 0 0.745361 0.329389 0 0.821558 0.387786 0 0.819289 0.286241 0 0.82075 0.366383 0 0.819439 0.306065 0 0.819915 0.335793 0 0.76832 0.383211 0 0.764643 0.282332 0 0.766827 0.361702 0 0.764764 0.301818 0 0.765421 0.331208 0 0.795656 0.385601 0 0.792691 0.284448 0 0.79454 0.364172 0 0.792845 0.304104 0 0.79343 0.333654 0 0.844383 0.513184 0 0.838868 0.400163 0 0.843042 0.489248 0 0.839736 0.422161 0 0.84126 0.455176 0 0.767236 0.510271 0 0.749928 0.392807 0 0.763238 0.485264 0 0.752687 0.415418 0 0.757624 0.449688 0 0.82918 0.512469 0 0.822051 0.398872 0 0.82746 0.488376 0 0.823176 0.420935 0 0.825155 0.454101 0 0.783287 0.510568 0 0.769271 0.394413 0 0.780008 0.485848 0 0.7715 0.416819 0 0.775467 0.450702 0 0.806465 0.511405 0 0.796351 0.396729 0 0.804058 0.487034 0 0.797953 0.418924 0 0.800786 0.452385 0 0.780469 0.65668 0 0.761219 0.523287 0 0.777006 0.628484 0 0.7655 0.549255 0 0.771476 0.588262 0 0.71456 0.666844 0 0.684833 0.532384 0 0.709838 0.638808 0 0.692267 0.558959 0 0.701793 0.598485 0 0.767133 0.65784 0 0.745394 0.523698 0 0.763338 0.629585 0 0.750377 0.549919 0 0.757182 0.589197 0 0.727971 0.66376 0 0.699776 0.528787 0 0.723408 0.635583 0 0.706713 0.55544 0 0.715708 0.595095 0 0.747573 0.660274 0 0.722345 0.525373 0 0.743346 0.632004 0 0.72836 0.5519 0 0.736341 0.591477 0 0.852756 0.654633 0 0.845101 0.525623 0 0.85114 0.627047 0 0.846563 0.55046 0 0.84881 0.588003 0 0.787268 0.656221 0 0.769276 0.523244 0 0.783981 0.628068 0 0.773216 0.549083 0 0.778777 0.587944 0 0.839492 0.65472 0 0.830094 0.52499 0 0.83757 0.627019 0 0.831941 0.549991 0 0.834735 0.587768 0 0.80058 0.655544 0 0.784981 0.523406 0 0.797647 0.62749 0 0.788299 0.549004 0 0.793078 0.587577 0 0.820049 0.654972 0 0.807728 0.52407 0 0.817634 0.627089 0 0.810246 0.549349 0 0.813968 0.587508 0 0.394753 0.710089 0 0.366812 0.648179 0 0.390994 0.695751 0 0.37462 0.658789 0 0.383912 0.676253 0 0.340589 0.747735 0 0.319957 0.697108 0 0.338025 0.735828 0 0.326003 0.705586 0 0.332965 0.719771 0 0.383213 0.718212 0 0.356698 0.658595 0 0.379688 0.70438 0 0.364156 0.668788 0 0.372996 0.685592 0 0.351078 0.740688 0 0.328794 0.687805 0 0.348241 0.728313 0 0.335224 0.696735 0 0.342713 0.711584 0 0.366859 0.729744 0 0.342397 0.673503 0 0.363667 0.716651 0 0.349351 0.683075 0 0.357536 0.698902 0 0.340974 0.8246 0 0.336323 0.757398 0 0.340537 0.810111 0 0.33793 0.770054 0 0.339553 0.789582 0 0.285899 0.841469 0 0.285741 0.782519 0 0.286102 0.828689 0 0.286021 0.793591 0 0.286193 0.810674 0 0.329768 0.82864 0 0.325969 0.76358 0 0.329462 0.814577 0 0.327336 0.775801 0 0.328688 0.794687 0 0.297141 0.838704 0 0.296026 0.77863 0 0.297216 0.825667 0 0.296594 0.789887 0 0.29708 0.807291 0 0.313465 0.83402 0 0.310979 0.771731 0 0.31335 0.820516 0 0.311959 0.783402 0 0.312891 0.801458 0 0.405372 0.798413 0 0.396379 0.71769 0 0.404186 0.781229 0 0.399071 0.733088 0 0.402039 0.75667 0 0.346735 0.822432 0 0.341665 0.754075 0 0.346231 0.807715 0 0.343387 0.766966 0 0.345141 0.786842 0 0.392885 0.803676 0 0.384729 0.72555 0 0.391843 0.787014 0 0.38722 0.740425 0 0.389927 0.763232 0 0.358141 0.81799 0 0.352278 0.74727 0 0.357504 0.802804 0 0.354208 0.760642 0 0.356209 0.781228 0 0.375218 0.811057 0 0.36822 0.736698 0 0.374382 0.795148 0 0.370433 0.75081 0 0.372783 0.772488 0 0.611029 0.257301 0 0.615896 0.175219 0 0.612028 0.239955 0 0.614957 0.191342 0 0.613509 0.215315 0 0.482526 0.238744 0 0.488688 0.164948 0 0.484052 0.223667 0 0.487668 0.179837 0 0.485998 0.201701 0 0.58609 0.253918 0 0.591358 0.173412 0 0.587232 0.23699 0 0.590382 0.189294 0 0.588852 0.212857 0 0.509608 0.242729 0 0.515673 0.167263 0 0.511078 0.227201 0 0.514649 0.182408 0 0.512985 0.2047 0 0.548433 0.248487 0 0.554183 0.170477 0 0.549763 0.232251 0 0.553172 0.185994 0 0.551555 0.208926 0 0.45451 0.316909 0 0.467694 0.244328 0 0.458167 0.302484 0 0.465824 0.259238 0 0.462484 0.280994 0 0.319035 0.291047 0 0.328695 0.225284 0 0.321486 0.277799 0 0.327179 0.238713 0 0.324588 0.258305 0 0.427353 0.310706 0 0.440042 0.240229 0 0.430752 0.296658 0 0.43817 0.254708 0 0.434878 0.275801 0 0.346866 0.295525 0 0.357393 0.228912 0 0.349551 0.28214 0 0.355752 0.242544 0 0.352937 0.26241 0 0.387293 0.302645 0 0.399003 0.234442 0 0.390329 0.288994 0 0.397212 0.248435 0 0.394111 0.268808 0 0.605601 0.370262 0 0.610526 0.26635 0 0.606433 0.345733 0 0.609491 0.284655 0 0.607914 0.313491 0 0.468318 0.320325 0 0.481677 0.246466 0 0.4721 0.305665 0 0.47983 0.261632 0 0.476494 0.283787 0 0.576853 0.356467 0 0.585495 0.262719 0 0.57903 0.335706 0 0.58421 0.280293 0 0.581894 0.307122 0 0.495475 0.327575 0 0.508797 0.250712 0 0.499313 0.312253 0 0.507027 0.266425 0 0.503744 0.28945 0 0.535726 0.340232 0 0.547717 0.256884 0 0.539112 0.323042 0 0.546143 0.273483 0 0.543154 0.298103 0 0.538368 0.450482 0 0.601109 0.381208 0 0.549137 0.43784 0 0.58557 0.397208 0 0.566052 0.418451 0 0.436663 0.39511 0 0.466094 0.327687 0 0.443453 0.381864 0 0.461162 0.341869 0 0.452815 0.362122 0 0.520471 0.436187 0 0.573072 0.366162 0 0.53039 0.423247 0 0.561165 0.382014 0 0.545245 0.403458 0 0.459639 0.40365 0 0.493008 0.335222 0 0.46719 0.390369 0 0.487221 0.349785 0 0.477695 0.370435 0 0.491442 0.418347 0 0.532735 0.34863 0 0.500162 0.405135 0 0.524658 0.363871 0 0.512605 0.385085 0 0.386148 0.461547 0 0.421256 0.397845 0 0.393648 0.448698 0 0.41451 0.410891 0 0.404285 0.429848 0 0.275419 0.434215 0 0.298611 0.369117 0 0.280499 0.420888 0 0.294305 0.382232 0 0.287613 0.401502 0 0.364968 0.454824 0 0.397458 0.390744 0 0.371971 0.441846 0 0.391296 0.403808 0 0.381863 0.422851 0 0.298943 0.438814 0 0.32439 0.373927 0 0.304506 0.425558 0 0.319656 0.387029 0 0.312307 0.406251 0 0.332595 0.44624 0 0.361465 0.38171 0 0.338874 0.433107 0 0.356059 0.394794 0 0.347705 0.413937 0 0.482695 0.515918 0 0.532959 0.456857 0 0.492866 0.504223 0 0.522552 0.469186 0 0.507644 0.486878 0 0.396621 0.465293 0 0.433117 0.401811 0 0.404375 0.452518 0 0.426049 0.414846 0 0.415399 0.433752 0 0.467786 0.503179 0 0.515407 0.442719 0 0.477479 0.491201 0 0.505619 0.455346 0 0.491524 0.473451 0 0.416412 0.473328 0 0.455718 0.41035 0 0.424664 0.460715 0 0.447974 0.423352 0 0.436458 0.44214 0 0.443432 0.486969 0 0.48694 0.425007 0 0.45241 0.474641 0 0.478159 0.437894 0 0.465339 0.45642 0 0.280344 0.778802 0 0.278896 0.737058 0 0.280105 0.768782 0 0.279262 0.744004 0 0.27971 0.755557 0 0.227414 0.786865 0 0.23787 0.73316 0 0.228807 0.775792 0 0.234852 0.743957 0 0.231385 0.759799 0 0.270029 0.78159 0 0.272281 0.736435 0 0.270208 0.771362 0 0.271567 0.74451 0 0.270713 0.757356 0 0.238638 0.786191 0 0.24795 0.734142 0 0.239793 0.775344 0 0.245164 0.744495 0 0.242027 0.759787 0 0.254582 0.784468 0 0.261059 0.735395 0 0.255295 0.773942 0 0.259072 0.744815 0 0.256811 0.759084 0 0.215895 0.851028 0 0.220889 0.79285 0 0.216792 0.838791 0 0.219686 0.80426 0 0.218155 0.8213 0 0.153457 0.853254 0 0.159921 0.793053 0 0.154583 0.840813 0 0.158391 0.805092 0 0.156377 0.822843 0 0.203565 0.851753 0 0.209117 0.793193 0 0.204544 0.839494 0 0.207772 0.804745 0 0.206058 0.821927 0 0.166468 0.853014 0 0.1729 0.793211 0 0.167587 0.840624 0 0.171365 0.80514 0 0.169363 0.822756 0 0.185202 0.852516 0 0.191338 0.793339 0 0.186272 0.840199 0 0.189858 0.805088 0 0.187953 0.822489 0 0.280112 0.842735 0 0.280448 0.784222 0 0.280381 0.830066 0 0.280579 0.795236 0 0.280589 0.812199 0 0.222123 0.850583 0 0.226784 0.792578 0 0.222972 0.838348 0 0.225668 0.803914 0 0.224248 0.820886 0 0.268656 0.84494 0 0.26996 0.787016 0 0.269053 0.832444 0 0.269803 0.797984 0 0.269494 0.814797 0 0.234203 0.849542 0 0.238124 0.79181 0 0.23495 0.837292 0 0.237211 0.803006 0 0.236035 0.819861 0 0.2516 0.847558 0 0.254274 0.789966 0 0.252179 0.835229 0 0.253716 0.800997 0 0.252953 0.817759 0 0.316421 0.693191 0 0.362326 0.64321 0 0.325057 0.683656 0 0.352403 0.653826 0 0.338379 0.669036 0 0.267707 0.667341 0 0.303019 0.608772 0 0.274278 0.655763 0 0.295321 0.620928 0 0.284492 0.638503 0 0.308593 0.686306 0 0.352543 0.634341 0 0.316829 0.676319 0 0.343021 0.645325 0 0.329574 0.661094 0 0.279495 0.671171 0 0.317122 0.614081 0 0.286503 0.659951 0 0.308932 0.625976 0 0.297395 0.643148 0 0.295125 0.677905 0 0.336012 0.62324 0 0.302757 0.667276 0 0.32713 0.634708 0 0.314603 0.651221 0 0.234141 0.727007 0 0.258271 0.671511 0 0.238049 0.715945 0 0.252474 0.68301 0 0.244746 0.699597 0 0.172632 0.721298 0 0.189163 0.659521 0 0.175528 0.708979 0 0.185361 0.672267 0 0.180197 0.69074 0 0.222817 0.725773 0 0.245504 0.668545 0 0.226569 0.714358 0 0.240112 0.680375 0 0.232893 0.697479 0 0.186185 0.722362 0 0.20431 0.661552 0 0.189323 0.71023 0 0.200112 0.674096 0 0.194428 0.692275 0 0.20511 0.724021 0 0.225556 0.664793 0 0.208578 0.712202 0 0.220763 0.677015 0 0.214309 0.694719 0 0.280065 0.733972 0 0.312181 0.697882 0 0.285385 0.727949 0 0.304387 0.706541 0 0.294204 0.71796 0 0.239653 0.727643 0 0.264493 0.673179 0 0.243634 0.716793 0 0.258493 0.684483 0 0.250512 0.700762 0 0.273684 0.732655 0 0.304556 0.691249 0 0.278771 0.725191 0 0.297073 0.70057 0 0.287248 0.713374 0 0.249727 0.728888 0 0.276066 0.676808 0 0.25394 0.718567 0 0.269674 0.687685 0 0.261208 0.703275 0 0.262718 0.730743 0 0.291389 0.683208 0 0.267378 0.721583 0 0.284432 0.693366 0 0.27526 0.707736 0 0.532558 0.613823 0 0.484346 0.528837 0 0.525173 0.594353 0 0.496729 0.543629 0 0.512315 0.567715 0 0.468906 0.659141 0 0.430743 0.5842 0 0.463364 0.641931 0 0.440915 0.597194 0 0.453403 0.618412 0 0.519791 0.623236 0 0.473683 0.540238 0 0.512796 0.604221 0 0.485607 0.554682 0 0.500547 0.578204 0 0.481876 0.650168 0 0.441754 0.573137 0 0.47598 0.632494 0 0.452362 0.586511 0 0.465457 0.608329 0 0.500889 0.636822 0 0.457813 0.55678 0 0.494453 0.618475 0 0.469074 0.570698 0 0.48308 0.593377 0 0.479327 0.767238 0 0.464704 0.672651 0 0.477258 0.747199 0 0.468799 0.69079 0 0.473582 0.718476 0 0.411897 0.795665 0 0.402455 0.713622 0 0.410635 0.778214 0 0.405255 0.729284 0 0.408365 0.753261 0 0.465148 0.773265 0 0.451692 0.681203 0 0.463256 0.753754 0 0.455493 0.698849 0 0.459895 0.725793 0 0.424982 0.790168 0 0.414609 0.705552 0 0.423568 0.772194 0 0.417637 0.721728 0 0.421044 0.74647 0 0.444766 0.781862 0 0.432917 0.693509 0 0.44312 0.76312 0 0.436313 0.710426 0 0.440194 0.736275 0 0.557794 0.732499 0 0.53593 0.624113 0 0.554619 0.70953 0 0.541831 0.644901 0 0.548968 0.67662 0 0.486624 0.764115 0 0.471385 0.668241 0 0.484463 0.743807 0 0.475636 0.68663 0 0.480619 0.714695 0 0.543402 0.73911 0 0.522974 0.633286 0 0.540451 0.71669 0 0.528522 0.653587 0 0.535195 0.68456 0 0.501014 0.757909 0 0.484526 0.659511 0 0.498665 0.737068 0 0.489091 0.678389 0 0.494483 0.707193 0 0.522208 0.74862 0 0.503801 0.646519 0 0.519567 0.726994 0 0.508847 0.666109 0 0.514863 0.695996 0 0.424993 0.578078 0 0.477444 0.521851 0 0.435775 0.566831 0 0.467018 0.533418 0 0.451494 0.550211 0 0.351909 0.534594 0 0.39259 0.47181 0 0.360314 0.521908 0 0.384558 0.484581 0 0.372538 0.503268 0 0.412628 0.567074 0 0.462777 0.50926 0 0.422951 0.555486 0 0.452824 0.521127 0 0.437988 0.538383 0 0.368987 0.541454 0 0.412129 0.479754 0 0.377894 0.529012 0 0.4036 0.492333 0 0.39085 0.51071 0 0.392094 0.553133 0 0.438783 0.493239 0 0.40172 0.541091 0 0.429535 0.505492 0 0.415731 0.523349 0 0.29936 0.600007 0 0.338668 0.537916 0 0.3071 0.587567 0 0.330527 0.55065 0 0.318704 0.569188 0 0.216096 0.581582 0 0.242823 0.514821 0 0.221291 0.568149 0 0.237234 0.528445 0 0.229155 0.548349 0 0.283718 0.59551 0 0.320495 0.53229 0 0.290945 0.582837 0 0.312867 0.545246 0 0.301796 0.564119 0 0.234058 0.584769 0 0.263331 0.518785 0 0.239765 0.571509 0 0.257224 0.532269 0 0.248385 0.55195 0 0.259521 0.589782 0 0.292551 0.525084 0 0.265987 0.5768 0 0.285681 0.538326 0 0.275724 0.557633 0 0.367485 0.637746 0 0.419491 0.583785 0 0.377756 0.626971 0 0.408735 0.594904 0 0.393112 0.611032 0 0.307029 0.602526 0 0.347615 0.54105 0 0.315028 0.590212 0 0.339214 0.553663 0 0.327012 0.572018 0 0.357494 0.628691 0 0.407359 0.572958 0 0.367348 0.617551 0 0.397052 0.584428 0 0.382077 0.60108 0 0.321386 0.607969 0 0.364437 0.547782 0 0.329883 0.595918 0 0.355535 0.560139 0 0.342598 0.578112 0 0.340631 0.617344 0 0.387178 0.559252 0 0.349829 0.605721 0 0.37756 0.571192 0 0.36358 0.588543 0 0.673181 0.521292 0 0.612937 0.392287 0 0.664235 0.495173 0 0.62923 0.418692 0 0.648749 0.45701 0 0.606803 0.557698 0 0.546818 0.458513 0 0.597384 0.535031 0 0.562013 0.475683 0 0.581276 0.503857 0 0.658833 0.526883 0 0.596366 0.407282 0 0.64949 0.501456 0 0.612983 0.430369 0 0.633261 0.465264 0 0.619557 0.5489 0 0.55795 0.44615 0 0.609958 0.525523 0 0.57364 0.464047 0 0.593473 0.49328 0 0.63876 0.537016 0 0.575659 0.427432 0 0.629121 0.512599 0 0.592004 0.447204 0 0.61243 0.478614 0 0.633983 0.696602 0 0.604682 0.574069 0 0.629577 0.670701 0 0.612341 0.597697 0 0.621847 0.633579 0 0.565093 0.729091 0 0.542481 0.61939 0 0.561799 0.705839 0 0.548563 0.640427 0 0.555942 0.672529 0 0.620211 0.702932 0 0.59205 0.583004 0 0.616003 0.677537 0 0.599451 0.606059 0 0.608599 0.64116 0 0.579295 0.722369 0 0.5552 0.610079 0 0.575764 0.698562 0 0.561642 0.631607 0 0.569497 0.664463 0 0.59987 0.712543 0 0.57365 0.596439 0 0.59599 0.687929 0 0.580597 0.618708 0 0.589131 0.652679 0 0.707708 0.668662 0 0.677399 0.534678 0 0.702932 0.640726 0 0.68503 0.561147 0 0.69476 0.600536 0 0.640978 0.693471 0 0.61117 0.569613 0 0.636481 0.667322 0 0.618941 0.593548 0 0.628605 0.629831 0 0.69426 0.6727 0 0.663219 0.540065 0 0.68943 0.645014 0 0.671116 0.566203 0 0.681111 0.605186 0 0.654628 0.687574 0 0.62401 0.561163 0 0.64998 0.660965 0 0.631952 0.585715 0 0.641865 0.622779 0 0.6745 0.67963 0 0.643249 0.549778 0 0.669704 0.652425 0 0.651288 0.575201 0 0.661382 0.613327 0 0.287354 0.360086 0 0.303462 0.295558 0 0.291112 0.347001 0 0.300706 0.308682 0 0.296182 0.327852 0 0.155648 0.339915 0 0.164031 0.276075 0 0.157602 0.326814 0 0.162592 0.288884 0 0.160237 0.30777 0 0.260993 0.355647 0 0.275477 0.291323 0 0.26437 0.342568 0 0.272997 0.304367 0 0.268929 0.323458 0 0.18269 0.343701 0 0.192591 0.279777 0 0.184997 0.330611 0 0.190891 0.292636 0 0.18811 0.311561 0 0.222027 0.349496 0 0.234191 0.285404 0 0.224862 0.336416 0 0.232105 0.298348 0 0.228688 0.317344 0 0.30476 0.288846 0 0.313973 0.223479 0 0.307093 0.275659 0 0.312523 0.236812 0 0.310049 0.256275 0 0.164712 0.269564 0 0.169632 0.207397 0 0.16594 0.256853 0 0.168842 0.219927 0 0.167511 0.238341 0 0.276646 0.28466 0 0.284984 0.220029 0 0.27875 0.271587 0 0.283665 0.233181 0 0.281422 0.252405 0 0.193393 0.273233 0 0.199181 0.210494 0 0.194841 0.260441 0 0.198254 0.223171 0 0.19669 0.241774 0 0.235175 0.278805 0 0.242235 0.215165 0 0.236948 0.265882 0 0.241111 0.22807 0 0.239207 0.246971 0 0.234954 0.505874 0 0.26076 0.43882 0 0.2403 0.492189 0 0.255694 0.452312 0 0.248074 0.472198 0 0.127998 0.488029 0 0.141714 0.419632 0 0.130842 0.47401 0 0.139029 0.433353 0 0.134979 0.4536 0 0.213711 0.502061 0 0.237038 0.434605 0 0.218545 0.488279 0 0.232462 0.448164 0 0.225574 0.46816 0 0.150105 0.491479 0 0.16625 0.423239 0 0.153452 0.477501 0 0.163089 0.436932 0 0.158321 0.457139 0 0.182144 0.496671 0 0.201866 0.428756 0 0.186232 0.482776 0 0.198001 0.442392 0 0.192177 0.462513 0 0.26329 0.431969 0 0.28535 0.36677 0 0.268125 0.41861 0 0.281257 0.379893 0 0.274894 0.399187 0 0.143051 0.412667 0 0.154605 0.346632 0 0.145599 0.39909 0 0.152473 0.359856 0 0.149149 0.379377 0 0.239322 0.427722 0 0.25919 0.362335 0 0.243683 0.414307 0 0.255509 0.375474 0 0.249782 0.394815 0 0.167825 0.41629 0 0.181458 0.350408 0 0.170828 0.402746 0 0.17894 0.363608 0 0.175017 0.383083 0 0.203793 0.421836 0 0.220513 0.356191 0 0.207471 0.40835 0 0.217421 0.369359 0 0.212606 0.388767 0 0.183176 0.651917 0 0.204334 0.586856 0 0.187086 0.63891 0 0.199665 0.600244 0 0.193169 0.619681 0 0.10111 0.642218 0 0.11189 0.572334 0 0.103092 0.628145 0 0.10949 0.586579 0 0.106177 0.607409 0 0.167176 0.649876 0 0.186104 0.583851 0 0.17067 0.636662 0 0.181918 0.597419 0 0.176105 0.617136 0 0.118337 0.644121 0 0.131112 0.575228 0 0.120688 0.630273 0 0.128272 0.589305 0 0.124347 0.609851 0 0.143092 0.646961 0 0.158878 0.57951 0 0.146001 0.633434 0 0.155377 0.593334 0 0.150527 0.613466 0 0.206788 0.579989 0 0.232226 0.512861 0 0.211725 0.566471 0 0.226901 0.526549 0 0.219207 0.546557 0 0.113159 0.565065 0 0.126549 0.495205 0 0.11573 0.550834 0 0.123723 0.509306 0 0.119657 0.530034 0 0.188307 0.576898 0 0.211246 0.509102 0 0.192747 0.56322 0 0.206434 0.522903 0 0.199489 0.543096 0 0.132613 0.568037 0 0.148398 0.49863 0 0.135648 0.553937 0 0.145071 0.512674 0 0.14028 0.53329 0 0.160725 0.572435 0 0.180059 0.503775 0 0.164454 0.558539 0 0.175993 0.517712 0 0.170132 0.538137 0 0.154 0.786815 0 0.164206 0.727068 0 0.155729 0.774761 0 0.161765 0.739309 0 0.158552 0.757086 0 0.0849226 0.786016 0 0.0911555 0.723287 0 0.086052 0.77351 0 0.0897538 0.736294 0 0.0878286 0.755039 0 0.140513 0.786615 0 0.150083 0.726193 0 0.142165 0.77445 0 0.147832 0.738597 0 0.144835 0.756588 0 0.0994065 0.786144 0 0.106596 0.723958 0 0.100697 0.773713 0 0.104965 0.736817 0 0.102738 0.755381 0 0.120232 0.78636 0 0.128699 0.72502 0 0.121727 0.774052 0 0.126747 0.737655 0 0.124112 0.755942 0 0.165535 0.72078 0 0.181259 0.658515 0 0.168305 0.708369 0 0.177655 0.671364 0 0.172753 0.689987 0 0.0918983 0.716573 0 0.100135 0.649364 0 0.0934097 0.703262 0 0.0982962 0.663286 0 0.0957635 0.683441 0 0.1513 0.719817 0 0.165462 0.65658 0 0.15382 0.707224 0 0.162237 0.669637 0 0.157836 0.688557 0 0.107464 0.717329 0 0.117182 0.651152 0 0.109236 0.704202 0 0.115003 0.664847 0 0.112008 0.684679 0 0.129745 0.718517 0 0.141663 0.653825 0 0.131894 0.705657 0 0.138972 0.667197 0 0.135285 0.686566 0 0.130352 0.410863 0 0.140854 0.344751 0 0.132668 0.397271 0 0.138917 0.357989 0 0.135896 0.377533 0 0.00644444 0.3944 0 0.00695733 0.327612 0 0.00655782 0.380699 0 0.00686291 0.340988 0 0.00671554 0.360755 0 0.10537 0.4074 0 0.113824 0.341144 0 0.107237 0.393781 0 0.112266 0.354408 0 0.109835 0.373998 0 0.0316943 0.397655 0 0.0342184 0.330999 0 0.0322522 0.383972 0 0.0337537 0.344346 0 0.0330284 0.364068 0 0.0686057 0.402471 0 0.0740842 0.336012 0 0.0698161 0.388818 0 0.0730751 0.349317 0 0.0715005 0.368972 0 0.314646 0.216664 0 0.319517 0.150514 0 0.315851 0.203287 0 0.318701 0.163974 0 0.317383 0.183654 0 0.170003 0.201014 0 0.172781 0.139535 0 0.170672 0.188523 0 0.172301 0.152005 0 0.171538 0.170259 0 0.285599 0.21331 0 0.290082 0.148186 0 0.2867 0.200131 0 0.289325 0.161431 0 0.288107 0.180799 0 0.199615 0.204031 0 0.20285 0.141673 0 0.200398 0.191376 0 0.202294 0.154332 0 0.201408 0.172855 0 0.242761 0.208579 0 0.246639 0.144878 0 0.243706 0.19567 0 0.245978 0.157823 0 0.244919 0.176756 0 0.150036 0.267728 0 0.154514 0.205842 0 0.151153 0.255057 0 0.153794 0.218299 0 0.152582 0.236619 0 0.00740479 0.250799 0 0.00762495 0.191369 0 0.00745945 0.238456 0 0.0075893 0.203176 0 0.00752956 0.22067 0 0.121209 0.264192 0 0.124822 0.202836 0 0.122109 0.251593 0 0.124239 0.215154 0 0.123261 0.233298 0 0.0364209 0.254163 0 0.037504 0.194257 0 0.0366898 0.241758 0 0.0373287 0.206191 0 0.0370348 0.223846 0 0.0788665 0.25913 0 0.0812139 0.198514 0 0.07945 0.246632 0 0.0808345 0.210638 0 0.080198 0.228532 0 0.146749 0.853357 0 0.153174 0.792971 0 0.147869 0.840893 0 0.151659 0.805061 0 0.149656 0.822874 0 0.0799259 0.853932 0 0.0843721 0.792376 0 0.0807032 0.841334 0 0.0833434 0.804816 0 0.0819547 0.823032 0 0.133473 0.853531 0 0.139719 0.792822 0 0.134562 0.841027 0 0.138254 0.805003 0 0.136306 0.822927 0 0.0937333 0.853866 0 0.0987789 0.792472 0 0.094615 0.841284 0 0.0976086 0.804859 0 0.0960331 0.823018 0 0.113748 0.853729 0 0.119509 0.792632 0 0.114754 0.841179 0 0.118166 0.804927 0 0.116368 0.822983 0 0.0728427 0.853957 0 0.0769534 0.792331 0 0.0735614 0.841354 0 0.0760033 0.804795 0 0.0747192 0.823037 0 0.00360412 0.854036 0 0.00382142 0.791978 0 0.00364214 0.841411 0 0.00377142 0.804619 0 0.00370352 0.823019 0 0.0588992 0.853995 0 0.0623027 0.792249 0 0.0594945 0.841382 0 0.0615174 0.804757 0 0.060454 0.823041 0 0.0177246 0.854035 0 0.0187894 0.792042 0 0.0179109 0.841411 0 0.0185443 0.804653 0 0.0182116 0.823028 0 0.0383602 0.854025 0 0.0406326 0.792141 0 0.0387577 0.841404 0 0.0401092 0.804703 0 0.0393991 0.823038 0 0.924761 0.65396 0 0.922827 0.527329 0 0.924241 0.62675 0 0.923105 0.551618 0 0.923606 0.588387 0 0.85952 0.654591 0 0.852665 0.525912 0 0.858048 0.627059 0 0.853954 0.550674 0 0.855951 0.588111 0 0.911537 0.654116 0 0.908948 0.527212 0 0.910876 0.626865 0 0.909349 0.551566 0 0.910042 0.588425 0 0.872771 0.654494 0 0.867301 0.526392 0 0.871552 0.627055 0 0.868293 0.551023 0 0.86986 0.588272 0 0.892161 0.654321 0 0.888331 0.526901 0 0.891252 0.62699 0 0.88898 0.551375 0 0.890045 0.588403 0 0.921867 0.393105 0 0.921438 0.29055 0 0.921761 0.371744 0 0.921503 0.310782 0 0.921621 0.340955 0 0.846901 0.389688 0 0.845265 0.287748 0 0.846347 0.368291 0 0.845394 0.307722 0 0.845754 0.337618 0 0.907434 0.392697 0 0.906848 0.290195 0 0.907274 0.371326 0 0.906925 0.310399 0 0.907077 0.340544 0 0.862986 0.390704 0 0.861694 0.288558 0 0.862565 0.36931 0 0.86181 0.308611 0 0.862104 0.338595 0 0.88566 0.391866 0 0.884773 0.2895 0 0.885392 0.370482 0 0.884869 0.309643 0 0.885084 0.339724 0 0.996573 0.515073 0 0.99657 0.404868 0 0.996571 0.491864 0 0.99657 0.426507 0 0.99657 0.458758 0 0.929757 0.515216 0 0.92916 0.404265 0 0.92959 0.491832 0 0.929248 0.426019 0 0.929398 0.458481 0 0.983132 0.515157 0 0.983112 0.404828 0 0.983121 0.49192 0 0.983114 0.426489 0 0.983114 0.458774 0 0.94348 0.515265 0 0.943151 0.404506 0 0.94338 0.491928 0 0.943198 0.426234 0 0.943275 0.458642 0 0.963383 0.515247 0 0.963277 0.404722 0 0.963343 0.491966 0 0.963291 0.426414 0 0.96331 0.458756 0 0.996805 0.814916 0 0.996641 0.667165 0 0.996765 0.783621 0 0.996667 0.695657 0 0.996712 0.738874 0 0.935178 0.815691 0 0.93177 0.668094 0 0.934379 0.784482 0 0.93234 0.696616 0 0.933297 0.739816 0 0.984283 0.815065 0 0.983476 0.667358 0 0.984086 0.783788 0 0.983603 0.695851 0 0.983825 0.73906 0 0.947655 0.815523 0 0.944927 0.667912 0 0.947006 0.784297 0 0.945373 0.696421 0 0.946134 0.739618 0 0.965957 0.815289 0 0.9642 0.667639 0 0.965532 0.784038 0 0.96448 0.696136 0 0.964967 0.739335 0 0.997056 0.991586 0 0.996826 0.831083 0 0.997007 0.958638 0 0.99687 0.863096 0 0.996937 0.910612 0 0.940055 0.991626 0 0.935602 0.831806 0 0.93912 0.958833 0 0.936461 0.863704 0 0.93777 0.911024 0 0.985514 0.991594 0 0.984388 0.831222 0 0.985276 0.958675 0 0.984603 0.863212 0 0.984933 0.910691 0 0.951654 0.991617 0 0.948001 0.831648 0 0.950885 0.95879 0 0.948702 0.86357 0 0.949775 0.910933 0 0.9686 0.991605 0 0.966184 0.83143 0 0.96809 0.958731 0 0.966645 0.863387 0 0.967354 0.910808 0 0.934126 0.991631 0 0.929283 0.83189 0 0.933111 0.958856 0 0.930219 0.863775 0 0.931643 0.911073 0 0.876344 0.991689 0 0.868597 0.832875 0 0.874765 0.959138 0 0.870159 0.864624 0 0.872458 0.911662 0 0.922483 0.991641 0 0.916915 0.832063 0 0.921321 0.958904 0 0.917997 0.863923 0 0.919637 0.911174 0 0.888158 0.991675 0 0.880847 0.832645 0 0.886657 0.959071 0 0.882304 0.864424 0 0.884468 0.911522 0 0.905368 0.991657 0 0.898848 0.832338 0 0.904016 0.958982 0 0.900129 0.864159 0 0.902054 0.911337 0 0.861539 0.816949 0 0.853582 0.669012 0 0.859927 0.785822 0 0.855199 0.697774 0 0.857564 0.741153 0 0.801036 0.819095 0 0.788847 0.67083 0 0.798939 0.788133 0 0.791744 0.699919 0 0.79556 0.743514 0 0.849289 0.817228 0 0.840459 0.669149 0 0.84756 0.786113 0 0.842321 0.697985 0 0.844977 0.741427 0 0.813387 0.818451 0 0.802003 0.670117 0 0.811368 0.787424 0 0.80464 0.699162 0 0.808172 0.742751 0 0.831366 0.81774 0 0.82124 0.669475 0 0.829481 0.786654 0 0.823485 0.698424 0 0.826581 0.741956 0 0.724779 0.82713 0 0.709916 0.683079 0 0.722557 0.797313 0 0.713826 0.71164 0 0.718652 0.754133 0 0.656217 0.840706 0 0.643031 0.706951 0 0.654358 0.813132 0 0.646626 0.733597 0 0.650965 0.773111 0 0.711268 0.829416 0 0.696485 0.686982 0 0.709092 0.799965 0 0.700413 0.715258 0 0.70523 0.757291 0 0.670495 0.837547 0 0.656754 0.701292 0 0.668541 0.80944 0 0.660482 0.728417 0 0.664996 0.768661 0 0.691091 0.833243 0 0.676699 0.693657 0 0.689013 0.804419 0 0.680568 0.721411 0 0.685279 0.762623 0 0.804229 0.991833 0 0.795724 0.835388 0 0.802625 0.959844 0 0.797625 0.866772 0 0.800207 0.913143 0 0.739973 0.992151 0 0.73261 0.84147 0 0.738704 0.961401 0 0.734427 0.871786 0 0.736715 0.916475 0 0.791616 0.991878 0 0.78324 0.836219 0 0.790064 0.960063 0 0.785151 0.867465 0 0.787705 0.913609 0 0.753473 0.992065 0 0.745788 0.839786 0 0.752123 0.960978 0 0.747649 0.870408 0 0.750025 0.915566 0 0.772787 0.99196 0 0.764704 0.83777 0 0.771328 0.960465 0 0.766604 0.86875 0 0.769086 0.914467 0 0.568658 0.861288 0 0.559241 0.74433 0 0.567308 0.837229 0 0.561783 0.767689 0 0.564871 0.802268 0 0.494966 0.877787 0 0.487628 0.774572 0 0.493766 0.856573 0 0.489442 0.795207 0 0.491771 0.825732 0 0.553661 0.864751 0 0.54475 0.750657 0 0.552358 0.841288 0 0.547127 0.773451 0 0.550035 0.807187 0 0.509801 0.874565 0 0.502099 0.768639 0 0.50858 0.852794 0 0.504046 0.789815 0 0.506511 0.821142 0 0.531687 0.869724 0 0.523419 0.759756 0 0.530431 0.847117 0 0.525572 0.781734 0 0.528247 0.814254 0 0.654784 0.992898 0 0.649674 0.856366 0 0.65398 0.965074 0 0.651047 0.883889 0 0.652669 0.924399 0 0.580921 0.993674 0 0.576911 0.871985 0 0.580278 0.968886 0 0.57797 0.896534 0 0.579238 0.932645 0 0.639903 0.993051 0 0.635125 0.859431 0 0.639158 0.965823 0 0.636417 0.886372 0 0.637937 0.92602 0 0.595955 0.993514 0 0.591852 0.86877 0 0.595309 0.968103 0 0.592953 0.893932 0 0.594255 0.930949 0 0.617971 0.993281 0 0.613596 0.864059 0 0.617291 0.966954 0 0.614781 0.89012 0 0.616174 0.928464 0 0.410698 0.895236 0 0.405935 0.807277 0 0.409814 0.877102 0 0.406994 0.824798 0 0.408452 0.850783 0 0.348231 0.906933 0 0.34695 0.830062 0 0.348069 0.890947 0 0.34732 0.845219 0 0.347752 0.867856 0 0.39752 0.897834 0 0.393376 0.812277 0 0.396753 0.880171 0 0.3943 0.829293 0 0.39557 0.854555 0 0.360474 0.904793 0 0.358426 0.825853 0 0.360145 0.888409 0 0.358939 0.841455 0 0.359592 0.864719 0 0.378742 0.901438 0 0.375606 0.819281 0 0.37818 0.884435 0 0.376326 0.835573 0 0.377296 0.85981 0 0.492621 0.994572 0 0.488012 0.890124 0 0.491763 0.973302 0 0.489057 0.911203 0 0.490461 0.942201 0 0.422194 0.995219 0 0.418012 0.903292 0 0.421371 0.976486 0 0.418898 0.921825 0 0.420152 0.949101 0 0.478081 0.994711 0 0.473384 0.892954 0 0.477191 0.973989 0 0.474427 0.913489 0 0.475851 0.943688 0 0.436211 0.995096 0 0.431722 0.900788 0 0.435332 0.975883 0 0.432679 0.919809 0 0.434027 0.947793 0 0.457003 0.994908 0 0.452302 0.89696 0 0.456095 0.974959 0 0.453322 0.916722 0 0.454739 0.945789 0 0.277056 0.916878 0 0.279934 0.849335 0 0.277783 0.902708 0 0.279512 0.862514 0 0.278731 0.88234 0 0.217005 0.921364 0 0.221682 0.85693 0 0.218005 0.907907 0 0.22079 0.86957 0 0.219427 0.888515 0 0.265031 0.918044 0 0.268418 0.851447 0 0.265852 0.904072 0 0.267882 0.864441 0 0.266945 0.88399 0 0.229353 0.92069 0 0.233806 0.855905 0 0.230333 0.907137 0 0.232989 0.868588 0 0.231706 0.887625 0 0.24728 0.919501 0 0.251278 0.853973 0 0.248201 0.905767 0 0.25059 0.866773 0 0.249459 0.886015 0 0.341939 0.99584 0 0.342064 0.916095 0 0.341995 0.979544 0 0.342083 0.932107 0 0.342059 0.955748 0 0.278798 0.996204 0 0.282799 0.923584 0 0.279652 0.981334 0 0.282048 0.938123 0 0.280878 0.959638 0 0.328916 0.995925 0 0.329935 0.917861 0 0.329157 0.979964 0 0.329778 0.933523 0 0.32949 0.956661 0 0.291411 0.996142 0 0.294788 0.922318 0 0.292138 0.981029 0 0.294163 0.937102 0 0.293179 0.958976 0 0.310051 0.99604 0 0.312323 0.920225 0 0.310552 0.980528 0 0.311919 0.93542 0 0.311261 0.957887 0 0.141613 0.923667 0 0.146203 0.859777 0 0.142461 0.910473 0 0.145178 0.872479 0 0.143771 0.891342 0 0.0766428 0.924302 0 0.079553 0.860403 0 0.0771483 0.911166 0 0.0788668 0.873174 0 0.0779582 0.89207 0 0.128595 0.923859 0 0.132944 0.859967 0 0.129384 0.910683 0 0.131957 0.87269 0 0.130617 0.891563 0 0.0899696 0.92423 0 0.0933094 0.860332 0 0.0905546 0.911087 0 0.0925274 0.873095 0 0.0914872 0.891987 0 0.109366 0.924077 0 0.113262 0.860182 0 0.110059 0.910921 0 0.112362 0.872928 0 0.111154 0.891813 0 0.205027 0.996456 0 0.210152 0.928571 0 0.206077 0.982575 0 0.209128 0.942189 0 0.20761 0.96231 0 0.143838 0.996553 0 0.147783 0.930327 0 0.144616 0.983046 0 0.14695 0.943663 0 0.145768 0.963307 0 0.192692 0.996482 0 0.197675 0.92906 0 0.193706 0.982703 0 0.196668 0.942595 0 0.195189 0.962583 0 0.156363 0.996539 0 0.160621 0.930086 0 0.15721 0.982979 0 0.159732 0.943458 0 0.158459 0.963167 0 0.17458 0.996514 0 0.179246 0.929641 0 0.175519 0.982858 0 0.178288 0.943082 0 0.176898 0.962911 0 0.996557 0.281204 0 0.996552 0.186833 0 0.996555 0.261392 0 0.996551 0.205284 0 0.996552 0.232966 0 0.928728 0.280489 0 0.928698 0.186406 0 0.928689 0.260724 0 0.928667 0.204794 0 0.928658 0.232384 0 0.983047 0.281117 0 0.98302 0.186766 0 0.983034 0.261307 0 0.983016 0.205212 0 0.983021 0.232887 0 0.942851 0.280718 0 0.942803 0.186521 0 0.942816 0.260932 0 0.942783 0.204933 0 0.942784 0.232557 0 0.963116 0.280956 0 0.963067 0.186657 0 0.963091 0.261153 0 0.963058 0.20509 0 0.963065 0.232747 0 0.99657 0.393919 0 0.996559 0.291433 0 0.996569 0.372632 0 0.996562 0.311702 0 0.996566 0.341889 0 0.929116 0.393269 0 0.928754 0.290699 0 0.929032 0.371915 0 0.928812 0.310942 0 0.928915 0.341125 0 0.98311 0.39387 0 0.983053 0.291346 0 0.983103 0.372569 0 0.983067 0.311617 0 0.983087 0.341811 0 0.943127 0.393521 0 0.942873 0.290937 0 0.943075 0.372179 0 0.942919 0.311196 0 0.942996 0.341391 0 0.963269 0.393751 0 0.96313 0.291183 0 0.963246 0.372429 0 0.96316 0.311452 0 0.963206 0.341653 0 0.99663 0.652978 0 0.996575 0.527131 0 0.996611 0.625872 0 0.99658 0.551221 0 0.996592 0.587724 0 0.931508 0.653876 0 0.929856 0.527363 0 0.931051 0.626684 0 0.930083 0.551624 0 0.930504 0.588354 0 0.983421 0.653168 0 0.983142 0.527228 0 0.983329 0.626052 0 0.983168 0.551344 0 0.98323 0.587879 0 0.944725 0.653706 0 0.943542 0.527387 0 0.94438 0.626541 0 0.943689 0.551601 0 0.94398 0.588265 0 0.964075 0.653442 0 0.96341 0.52734 0 0.963867 0.626307 0 0.963482 0.551499 0 0.963637 0.58809 0 0.838903 0.0836386 0 0.840576 0.00408221 0 0.83923 0.0673073 0 0.840228 0.0200912 0 0.839724 0.0436112 0 0.749801 0.0832313 0 0.752012 0.00407341 0 0.750262 0.067043 0 0.751572 0.0200448 0 0.750923 0.0434846 0 0.822019 0.0836007 0 0.823811 0.00408224 0 0.822374 0.0672875 0 0.823442 0.0200908 0 0.822904 0.043606 0 0.769114 0.0833777 0 0.771224 0.00407804 0 0.769548 0.0671464 0 0.770801 0.0200683 0 0.770177 0.0435416 0 0.796229 0.0835188 0 0.798186 0.00408141 0 0.796624 0.0672398 0 0.797788 0.0200859 0 0.797205 0.0435879 0 0.921427 0.177107 0 0.921998 0.0922535 0 0.921503 0.159294 0 0.921847 0.10894 0 0.921654 0.13381 0 0.845839 0.176137 0 0.847143 0.092054 0 0.846068 0.158552 0 0.846847 0.108648 0 0.84644 0.133329 0 0.906892 0.176969 0 0.907587 0.092216 0 0.90699 0.159185 0 0.907408 0.10889 0 0.907177 0.133734 0 0.862079 0.1764 0 0.863206 0.0920978 0 0.862267 0.158749 0 0.862941 0.108717 0 0.862583 0.133451 0 0.884951 0.176719 0 0.885848 0.0921586 0 0.885089 0.158991 0 0.885626 0.108808 0 0.885335 0.133605 0 0.837338 0.175987 0 0.838739 0.0920308 0 0.837591 0.15844 0 0.838427 0.10861 0 0.837992 0.133261 0 0.747075 0.17365 0 0.749563 0.0915314 0 0.747612 0.156644 0 0.749087 0.107887 0 0.748366 0.132088 0 0.820236 0.175656 0 0.82184 0.0919804 0 0.820539 0.158195 0 0.821495 0.108528 0 0.821006 0.133112 0 0.766632 0.174293 0 0.76889 0.0917041 0 0.767107 0.157154 0 0.768447 0.108121 0 0.767786 0.13244 0 0.794104 0.17506 0 0.796027 0.0918756 0 0.79449 0.157746 0 0.795634 0.108366 0 0.79506 0.132831 0 0.736839 0.17328 0 0.739443 0.0914218 0 0.737407 0.156347 0 0.738951 0.107742 0 0.7382 0.131877 0 0.62858 0.167832 0 0.632166 0.0893108 0 0.629409 0.151756 0 0.631528 0.105113 0 0.630521 0.12836 0 0.716267 0.172462 0 0.719097 0.0911584 0 0.716896 0.15568 0 0.718572 0.1074 0 0.717762 0.131393 0 0.651971 0.16925 0 0.655391 0.0899244 0 0.652757 0.152978 0 0.654779 0.105861 0 0.653816 0.129328 0 0.684888 0.17102 0 0.688029 0.0906369 0 0.685601 0.154481 0 0.687459 0.106742 0 0.686569 0.130493 0 0.616353 0.167038 0 0.620014 0.088954 0 0.6172 0.151066 0 0.619364 0.104681 0 0.618336 0.127807 0 0.489179 0.157357 0 0.493196 0.0842328 0 0.490095 0.142496 0 0.492471 0.0990464 0 0.491335 0.120758 0 0.591831 0.165345 0 0.59562 0.0881698 0 0.592708 0.149585 0 0.594947 0.103737 0 0.593884 0.126608 0 0.516166 0.159549 0 0.520168 0.0853389 0 0.517084 0.144452 0 0.51945 0.100359 0 0.518321 0.122384 0 0.554671 0.162584 0 0.558597 0.0868422 0 0.555577 0.147148 0 0.557898 0.102149 0 0.556794 0.124613 0 0.319916 0.143639 0 0.323356 0.0770892 0 0.32067 0.130158 0 0.322708 0.0906103 0 0.321718 0.110395 0 0.173017 0.133167 0 0.175114 0.0714874 0 0.173469 0.120676 0 0.174712 0.0840225 0 0.174104 0.102362 0 0.290453 0.141421 0 0.293677 0.0759112 0 0.291156 0.128153 0 0.293066 0.0892234 0 0.292137 0.1087 0 0.203124 0.135209 0 0.205544 0.0725871 0 0.203647 0.122528 0 0.205081 0.0853145 0 0.20438 0.103934 0 0.246964 0.138267 0 0.249815 0.0742278 0 0.247583 0.125299 0 0.249272 0.087243 0 0.248448 0.106284 0 0.47521 0.15621 0 0.479224 0.0836486 0 0.476123 0.141469 0 0.478496 0.098354 0 0.47736 0.119902 0 0.334869 0.144793 0 0.338407 0.0777002 0 0.335647 0.1312 0 0.337743 0.0913299 0 0.336726 0.111275 0 0.447482 0.153921 0 0.451463 0.0824733 0 0.448381 0.139418 0 0.450737 0.0969629 0 0.449606 0.118187 0 0.363992 0.147093 0 0.367693 0.0789132 0 0.364811 0.133275 0 0.367003 0.0927595 0 0.365942 0.113025 0 0.406117 0.150509 0 0.409995 0.0807036 0 0.406984 0.136352 0 0.409279 0.0948717 0 0.408173 0.115615 0 0.323679 0.0701867 0 0.326634 0.00345593 0 0.324299 0.0566555 0 0.326049 0.0170004 0 0.325184 0.0368316 0 0.175316 0.0650876 0 0.17719 0.00320513 0 0.175706 0.052541 0 0.176816 0.0157666 0 0.176265 0.0341579 0 0.293982 0.069115 0 0.296781 0.00340334 0 0.294568 0.0557914 0 0.296226 0.0167417 0 0.295405 0.0362706 0 0.205776 0.0660892 0 0.207926 0.00325451 0 0.206224 0.0533498 0 0.207498 0.0160095 0 0.206866 0.0346839 0 0.250087 0.0675829 0 0.252595 0.00332805 0 0.25061 0.0545555 0 0.252096 0.0163712 0 0.25136 0.0354677 0 0.157609 0.132137 0 0.159533 0.0709317 0 0.158023 0.119742 0 0.159164 0.0833699 0 0.158605 0.101568 0 0.00778024 0.122466 0 0.00787875 0.0656858 0 0.00780131 0.110955 0 0.00785973 0.077214 0 0.00783108 0.0940892 0 0.127336 0.13014 0 0.128912 0.0698519 0 0.127675 0.117929 0 0.128608 0.0821023 0 0.128151 0.100026 0 0.0382671 0.124404 0 0.0387506 0.0667394 0 0.0383705 0.112717 0 0.0386573 0.07845 0 0.0385167 0.0955898 0 0.0828604 0.127256 0 0.0838994 0.0682886 0 0.0830829 0.115309 0 0.083699 0.0802675 0 0.0833971 0.097797 0 0.870293 0.991696 0 0.862361 0.833 0 0.868685 0.959175 0 0.863971 0.864733 0 0.866329 0.911738 0 0.810596 0.991814 0 0.802049 0.835027 0 0.808971 0.959747 0 0.803941 0.866469 0 0.806529 0.912937 0 0.858386 0.991712 0 0.850162 0.833266 0 0.856736 0.959254 0 0.851857 0.864966 0 0.854308 0.911902 0 0.822952 0.99178 0 0.814374 0.834424 0 0.821296 0.959583 0 0.816236 0.865961 0 0.818822 0.912591 0 0.840791 0.991742 0 0.832303 0.833754 0 0.839118 0.959395 0 0.834096 0.865388 0 0.83664 0.912197 0 0.415102 0.995279 0 0.411137 0.904533 0 0.414322 0.976784 0 0.411976 0.922824 0 0.413165 0.949749 0 0.348632 0.995794 0 0.348299 0.915149 0 0.348593 0.979319 0 0.348407 0.931348 0 0.348519 0.955258 0 0.401326 0.995394 0 0.3979 0.906892 0 0.400653 0.97735 0 0.398626 0.924721 0 0.399654 0.950977 0 0.361842 0.9957 0 0.360629 0.913208 0 0.361621 0.978857 0 0.360911 0.929791 0 0.361283 0.954253 0 0.38143 0.995553 0 0.379017 0.910164 0 0.380962 0.978131 0 0.379538 0.927349 0 0.380264 0.952676 0 0.137413 0.996559 0 0.141193 0.930434 0 0.138156 0.983075 0 0.140391 0.943753 0 0.139257 0.96337 0 0.0743095 0.996592 0 0.0763976 0.931031 0 0.0747085 0.983241 0 0.0759384 0.944261 0 0.075307 0.963718 0 0.124755 0.996569 0 0.128206 0.930615 0 0.125428 0.983125 0 0.127467 0.943907 0 0.126429 0.963475 0 0.0872414 0.996589 0 0.089685 0.930963 0 0.0877103 0.983222 0 0.0891505 0.944203 0 0.0884124 0.963678 0 0.106073 0.99658 0 0.109027 0.93082 0 0.106644 0.983182 0 0.108387 0.944082 0 0.107497 0.963595 0 0.0676912 0.996594 0 0.069596 0.931058 0 0.0680544 0.983248 0 0.0691761 0.944284 0 0.0685998 0.963733 0 0.00334143 0.996599 0 0.00343611 0.93114 0 0.00335932 0.983271 0 0.003415 0.944353 0 0.00338629 0.963781 0 0.0546891 0.996596 0 0.0562317 0.931097 0 0.0549823 0.983259 0 0.0558904 0.944317 0 0.0554232 0.963756 0 0.0164349 0.996599 0 0.0169003 0.931139 0 0.0165229 0.98327 0 0.0167966 0.944353 0 0.0166555 0.96378 0 0.0355869 0.996598 0 0.0365933 0.931128 0 0.0357776 0.983268 0 0.0363697 0.944343 0 0.0360646 0.963774 0 0.620332 0.0809456 0 0.623099 0.00397535 0 0.620932 0.065281 0 0.622565 0.0195584 0 0.621767 0.0423974 0 0.493553 0.0766769 0 0.496704 0.00377224 0 0.49423 0.0618758 0 0.49609 0.0185573 0 0.495177 0.0402121 0 0.595949 0.0802395 0 0.598808 0.00394243 0 0.596569 0.0647216 0 0.598256 0.019396 0 0.597431 0.0420412 0 0.52052 0.0776796 0 0.523615 0.00382056 0 0.521187 0.0626791 0 0.523015 0.0187953 0 0.522119 0.0407302 0 0.55894 0.0790405 0 0.561927 0.0038857 0 0.559586 0.0637669 0 0.561349 0.0191163 0 0.560486 0.0414299 0 0.996579 0.083987 0 0.996621 0.00409289 0 0.996587 0.0675514 0 0.996612 0.0201455 0 0.996599 0.0437439 0 0.929311 0.0838338 0 0.930145 0.00408597 0 0.929466 0.0674313 0 0.929966 0.0201113 0 0.929709 0.0436684 0 0.983157 0.0839562 0 0.983363 0.00409137 0 0.983195 0.0675265 0 0.983318 0.0201381 0 0.983255 0.0437278 0 0.943283 0.0838653 0 0.943961 0.00408721 0 0.943409 0.0674549 0 0.943815 0.0201175 0 0.943607 0.0436825 0 0.963371 0.0839109 0 0.963814 0.00408921 0 0.963452 0.0674904 0 0.963718 0.0201274 0 0.963581 0.0437046 0 0.996552 0.177565 0 0.996576 0.0924434 0 0.996555 0.159685 0 0.996569 0.109174 0 0.996561 0.134116 0 0.928723 0.177168 0 0.929236 0.0922723 0 0.92879 0.159344 0 0.929098 0.108965 0 0.928925 0.133845 0 0.983024 0.177501 0 0.983139 0.0924095 0 0.983037 0.159628 0 0.983106 0.109134 0 0.983066 0.134067 0 0.94282 0.177273 0 0.943223 0.0923082 0 0.94287 0.15943 0 0.943113 0.109011 0 0.942975 0.133909 0 0.963077 0.177399 0 0.963331 0.0923594 0 0.963107 0.159537 0 0.96326 0.109074 0 0.963172 0.133993 0 0.272396 0.996233 0 0.276663 0.924179 0 0.273303 0.981478 0 0.275857 0.938603 0 0.274608 0.95995 0 0.211317 0.996441 0 0.216487 0.928289 0 0.212381 0.982502 0 0.21546 0.941956 0 0.21393 0.962154 0 0.259909 0.996286 0 0.264592 0.925242 0 0.260898 0.981738 0 0.263698 0.939464 0 0.262324 0.960512 0 0.223646 0.996409 0 0.228841 0.927667 0 0.224722 0.982343 0 0.227819 0.941443 0 0.226285 0.961814 0 0.241734 0.996353 0 0.246793 0.926575 0 0.242792 0.982068 0 0.245813 0.940549 0 0.244324 0.961223 0 0.0838617 0.716201 0 0.0913486 0.648463 0 0.0852394 0.702797 0 0.0896801 0.662502 0 0.0873803 0.682823 0 0.00417489 0.712934 0 0.00454052 0.639984 0 0.00424309 0.698627 0 0.00445978 0.655182 0 0.00434802 0.677148 0 0.0679555 0.715498 0 0.0739817 0.646714 0 0.0690696 0.701911 0 0.072643 0.660984 0 0.070795 0.681634 0 0.0205245 0.713569 0 0.0223239 0.641684 0 0.0208599 0.699445 0 0.0219264 0.656644 0 0.0213762 0.678273 0 0.044361 0.714514 0 0.0482665 0.644185 0 0.0450868 0.700659 0 0.0474019 0.658799 0 0.0462064 0.679936 0 0.57326 0.993755 0 0.569263 0.873614 0 0.572612 0.969283 0 0.570309 0.897852 0 0.571569 0.933504 0 0.500082 0.994499 0 0.495536 0.888652 0 0.499244 0.972945 0 0.496579 0.910014 0 0.497967 0.941427 0 0.558282 0.993911 0 0.554251 0.876772 0 0.557611 0.970053 0 0.55528 0.900407 0 0.556543 0.935169 0 0.514777 0.994354 0 0.510374 0.885717 0 0.513983 0.972231 0 0.51141 0.907641 0 0.512762 0.939882 0 0.536452 0.994136 0 0.532265 0.881305 0 0.535725 0.971157 0 0.533291 0.904074 0 0.53459 0.937558 0 0.103164 0.563557 0 0.115338 0.49348 0 0.105499 0.54926 0 0.112767 0.507607 0 0.109069 0.528387 0 0.0051122 0.549176 0 0.0057077 0.477343 0 0.005226 0.534292 0 0.00558162 0.491631 0 0.00540045 0.512799 0 0.0834613 0.560616 0 0.0932657 0.490141 0 0.0853395 0.546194 0 0.0911935 0.504311 0 0.0882135 0.525184 0 0.0251389 0.552078 0 0.0280694 0.480571 0 0.025699 0.537309 0 0.027449 0.494835 0 0.0265576 0.515934 0 0.0543886 0.556336 0 0.0607466 0.485326 0 0.0556048 0.541738 0 0.0594014 0.499548 0 0.0574679 0.52054 0 0.732978 0.9922 0 0.725794 0.842434 0 0.731752 0.961642 0 0.727584 0.872573 0 0.729821 0.916993 0 0.662335 0.992822 0 0.657044 0.854843 0 0.661499 0.964701 0 0.658459 0.882655 0 0.660137 0.923593 0 0.719069 0.992306 0 0.712255 0.844527 0 0.717926 0.962162 0 0.713982 0.874279 0 0.716113 0.918114 0 0.677034 0.992679 0 0.671367 0.851958 0 0.676127 0.963994 0 0.672866 0.880316 0 0.674658 0.922066 0 0.698267 0.992482 0 0.692025 0.848027 0 0.697246 0.963027 0 0.693643 0.877125 0 0.695607 0.919979 0 
</DataArray> 
</Points> 
<Cells> 
<DataArray type="Int32" Name="connectivity">
0 1 6 5 1 2 7 6 2 3 8 7 3 4 9 8 5 6 11 10 6 7 12 11 7 8 13 12 8 9 14 13 10 11 16 15 11 12 17 16 12 13 18 17 13 14 19 18 15 16 21 20 16 17 22 21 17 18 23 22 18 19 24 23 25 26 31 30 26 27 32 31 27 28 33 32 28 29 34 33 30 31 36 35 31 32 37 36 32 33 38 37 33 34 39 38 35 36 41 40 36 37 42 41 37 38 43 42 38 39 44 43 40 41 46 45 41 42 47 46 42 43 48 47 43 44 49 48 50 51 56 55 51 52 57 56 52 53 58 57 53 54 59 58 55 56 61 60 56 57 62 61 57 58 63 62 58 59 64 63 60 61 66 65 61 62 67 66 62 63 68 67 63 64 69 68 65 66 71 70 66 67 72 71 67 68 73 72 68 69 74 73 75 76 81 80 76 77 82 81 77 78 83 82 78 79 84 83 80 81 86 85 81 82 87 86 82 83 88 87 83 84 89 88 85 86 91 90 86 87 92 91 87 88 93 92 88 89 94 93 90 91 96 95 91 92 97 96 92 93 98 97 93 94 99 98 100 101 106 105 101 102 107 106 102 103 108 107 103 104 109 108 105 106 111 110 106 107 112 111 107 108 113 112 108 109 114 113 110 111 116 115 111 112 117 116 112 113 118 117 113 114 119 118 115 116 121 120 116 117 122 121 117 118 123 122 118 119 124 123 125 126 131 130 126 127 132 131 127 128 133 132 128 129 134 133 130 131 136 135 131 132 137 136 132 133 138 137 133 134 139 138 135 136 141 140 136 137 142 141 137 138 143 142 138 139 144 143 140 141 146 145 141 142 147 146 142 143 148 147 143 144 149 148 150 151 156 155 151 152 157 156 152 153 158 157 153 154 159 158 155 156 161 160 156 157 162 161 157 158 163 162 158 159 164 163 160 161 166 165 161 162 167 166 162 163 168 167 163 164 169 168 165 166 171 170 166 167 172 171 167 168 173 172 168 169 174 173 175 176 181 180 176 177 182 181 177 178 183 182 178 179 184 183 180 181 186 185 181 182 187 186 182 183 188 187 183 184 189 188 185 186 191 190 186 187 192 191 187 188 193 192 188 189 194 193 190 191 196 195 191 192 197 196 192 193 198 197 193 194 199 198 200 201 206 205 201 202 207 206 202 203 208 207 203 204 209 208 205 206 211 210 206 207 212 211 207 208 213 212 208 209 214 213 210 211 216 215 211 212 217 216 212 213 218 217 213 214 219 218 215 216 221 220 216 217 222 221 217 218 223 222 218 219 224 223 225 226 231 230 226 227 232 231 227 228 233 232 228 229 234 233 230 231 236 235 231 232 237 236 232 233 238 237 233 234 239 238 235 236 241 240 236 237 242 241 237 238 243 242 238 239 244 243 240 241 246 245 241 242 247 246 242 243 248 247 243 244 249 248 250 251 256 255 251 252 257 256 252 253 258 257 253 254 259 258 255 256 261 260 256 257 262 261 257 258 263 262 258 259 264 263 260 261 266 265 261 262 267 266 262 263 268 267 263 264 269 268 265 266 271 270 266 267 272 271 267 268 273 272 268 269 274 273 275 276 281 280 276 277 282 281 277 278 283 282 278 279 284 283 280 281 286 285 281 282 287 286 282 283 288 287 283 284 289 288 285 286 291 290 286 287 292 291 287 288 293 292 288 289 294 293 290 291 296 295 291 292 297 296 292 293 298 297 293 294 299 298 300 301 306 305 301 302 307 306 302 303 308 307 303 304 309 308 305 306 311 310 306 307 312 311 307 308 313 312 308 309 314 313 310 311 316 315 311 312 317 316 312 313 318 317 313 314 319 318 315 316 321 320 316 317 322 321 317 318 323 322 318 319 324 323 325 326 331 330 326 327 332 331 327 328 333 332 328 329 334 333 330 331 336 335 331 332 337 336 332 333 338 337 333 334 339 338 335 336 341 340 336 337 342 341 337 338 343 342 338 339 344 343 340 341 346 345 341 342 347 346 342 343 348 347 343 344 349 348 350 351 356 355 351 352 357 356 352 353 358 357 353 354 359 358 355 356 361 360 356 357 362 361 357 358 363 362 358 359 364 363 360 361 366 365 361 362 367 366 362 363 368 367 363 364 369 368 365 366 371 370 366 367 372 371 367 368 373 372 368 369 374 373 375 376 381 380 376 377 382 381 377 378 383 382 378 379 384 383 380 381 386 385 381 382 387 386 382 383 388 387 383 384 389 388 385 386 391 390 386 387 392 391 387 388 393 392 388 389 394 393 390 391 396 395 391 392 397 396 392 393 398 397 393 394 399 398 400 401 406 405 401 402 407 406 402 403 408 407 403 404 409 408 405 406 411 410 406 407 412 411 407 408 413 412 408 409 414 413 410 411 416 415 411 412 417 416 412 413 418 417 413 414 419 418 415 416 421 420 416 417 422 421 417 418 423 422 418 419 424 423 425 426 431 430 426 427 432 431 427 428 433 432 428 429 434 433 430 431 436 435 431 432 437 436 432 433 438 437 433 434 439 438 435 436 441 440 436 437 442 441 437 438 443 442 438 439 444 443 440 441 446 445 441 442 447 446 442 443 448 447 443 444 449 448 450 451 456 455 451 452 457 456 452 453 458 457 453 454 459 458 455 456 461 460 456 457 462 461 457 458 463 462 458 459 464 463 460 461 466 465 461 462 467 466 462 463 468 467 463 464 469 468 465 466 471 470 466 467 472 471 467 468 473 472 468 469 474 473 475 476 481 480 476 477 482 481 477 478 483 482 478 479 484 483 480 481 486 485 481 482 487 486 482 483 488 487 483 484 489 488 485 486 491 490 486 487 492 491 487 488 493 492 488 489 494 493 490 491 496 495 491 492 497 496 492 493 498 497 493 494 499 498 500 501 506 505 501 502 507 506 502 503 508 507 503 504 509 508 505 506 511 510 506 507 512 511 507 508 513 512 508 509 514 513 510 511 516 515 511 512 517 516 512 513 518 517 513 514 519 518 515 516 521 520 516 517 522 521 517 518 523 522 518 519 524 523 525 526 531 530 526 527 532 531 527 528 533 532 528 529 534 533 530 531 536 535 531 532 537 536 532 533 538 537 533 534 539 538 535 536 541 540 536 537 542 541 537 538 543 542 538 539 544 543 540 541 546 545 541 542 547 546 542 543 548 547 543 544 549 548 550 551 556 555 551 552 557 556 552 553 558 557 553 554 559 558 555 556 561 560 556 557 562 561 557 558 563 562 558 559 564 563 560 561 566 565 561 562 567 566 562 563 568 567 563 564 569 568 565 566 571 570 566 567 572 571 567 568 573 572 568 569 574 573 575 576 581 580 576 577 582 581 577 578 583 582 578 579 584 583 580 581 586 585 581 582 587 586 582 583 588 587 583 584 589 588 585 586 591 590 586 587 592 591 587 588 593 592 588 589 594 593 590 591 596 595 591 592 597 596 592 593 598 597 593 594 599 598 600 601 606 605 601 602 607 606 602 603 608 607 603 604 609 608 605 606 611 610 606 607 612 611 607 608 613 612 608 609 614 613 610 611 616 615 611 612 617 616 612 613 618 617 613 614 619 618 615 616 621 620 616 617 622 621 617 618 623 622 618 619 624 623 625 626 631 630 626 627 632 631 627 628 633 632 628 629 634 633 630 631 636 635 631 632 637 636 632 633 638 637 633 634 639 638 635 636 641 640 636 637 642 641 637 638 643 642 638 639 644 643 640 641 646 645 641 642 647 646 642 643 648 647 643 644 649 648 650 651 656 655 651 652 657 656 652 653 658 657 653 654 659 658 655 656 661 660 656 657 662 661 657 658 663 662 658 659 664 663 660 661 666 665 661 662 667 666 662 663 668 667 663 664 669 668 665 666 671 670 666 667 672 671 667 668 673 672 668 669 674 673 675 676 681 680 676 677 682 681 677 678 683 682 678 679 684 683 680 681 686 685 681 682 687 686 682 683 688 687 683 684 689 688 685 686 691 690 686 687 692 691 687 688 693 692 688 689 694 693 690 691 696 695 691 692 697 696 692 693 698 697 693 694 699 698 700 701 706 705 701 702 707 706 702 703 708 707 703 704 709 708 705 706 711 710 706 707 712 711 707 708 713 712 708 709 714 713 710 711 716 715 711 712 717 716 712 713 718 717 713 714 719 718 715 716 721 720 716 717 722 721 717 718 723 722 718 719 724 723 725 726 731 730 726 727 732 731 727 728 733 732 728 729 734 733 730 731 736 735 731 732 737 736 732 733 738 737 733 734 739 738 735 736 741 740 736 737 742 741 737 738 743 742 738 739 744 743 740 741 746 745 741 742 747 746 742 743 748 747 743 744 749 748 750 751 756 755 751 752 757 756 752 753 758 757 753 754 759 758 755 756 761 760 756 757 762 761 757 758 763 762 758 759 764 763 760 761 766 765 761 762 767 766 762 763 768 767 763 764 769 768 765 766 771 770 766 767 772 771 767 768 773 772 768 769 774 773 775 776 781 780 776 777 782 781 777 778 783 782 778 779 784 783 780 781 786 785 781 782 787 786 782 783 788 787 783 784 789 788 785 786 791 790 786 787 792 791 787 788 793 792 788 789 794 793 790 791 796 795 791 792 797 796 792 793 798 797 793 794 799 798 800 801 806 805 801 802 807 806 802 803 808 807 803 804 809 808 805 806 811 810 806 807 812 811 807 808 813 812 808 809 814 813 810 811 816 815 811 812 817 816 812 813 818 817 813 814 819 818 815 816 821 820 816 817 822 821 817 818 823 822 818 819 824 823 825 826 831 830 826 827 832 831 827 828 833 832 828 829 834 833 830 831 836 835 831 832 837 836 832 833 838 837 833 834 839 838 835 836 841 840 836 837 842 841 837 838 843 842 838 839 844 843 840 841 846 845 841 842 847 846 842 843 848 847 843 844 849 848 850 851 856 855 851 852 857 856 852 853 858 857 853 854 859 858 855 856 861 860 856 857 862 861 857 858 863 862 858 859 864 863 860 861 866 865 861 862 867 866 862 863 868 867 863 864 869 868 865 866 871 870 866 867 872 871 867 868 873 872 868 869 874 873 875 876 881 880 876 877 882 881 877 878 883 882 878 879 884 883 880 881 886 885 881 882 887 886 882 883 888 887 883 884 889 888 885 886 891 890 886 887 892 891 887 888 893 892 888 889 894 893 890 891 896 895 891 892 897 896 892 893 898 897 893 894 899 898 900 901 906 905 901 902 907 906 902 903 908 907 903 904 909 908 905 906 911 910 906 907 912 911 907 908 913 912 908 909 914 913 910 911 916 915 911 912 917 916 912 913 918 917 913 914 919 918 915 916 921 920 916 917 922 921 917 918 923 922 918 919 924 923 925 926 931 930 926 927 932 931 927 928 933 932 928 929 934 933 930 931 936 935 931 932 937 936 932 933 938 937 933 934 939 938 935 936 941 940 936 937 942 941 937 938 943 942 938 939 944 943 940 941 946 945 941 942 947 946 942 943 948 947 943 944 949 948 950 951 956 955 951 952 957 956 952 953 958 957 953 954 959 958 955 956 961 960 956 957 962 961 957 958 963 962 958 959 964 963 960 961 966 965 961 962 967 966 962 963 968 967 963 964 969 968 965 966 971 970 966 967 972 971 967 968 973 972 968 969 974 973 975 976 981 980 976 977 982 981 977 978 983 982 978 979 984 983 980 981 986 985 981 982 987 986 982 983 988 987 983 984 989 988 985 986 991 990 986 987 992 991 987 988 993 992 988 989 994 993 990 991 996 995 991 992 997 996 992 993 998 997 993 994 999 998 1000 1001 1006 1005 1001 1002 1007 1006 1002 1003 1008 1007 1003 1004 1009 1008 1005 1006 1011 1010 1006 1007 1012 1011 1007 1008 1013 1012 1008 1009 1014 1013 1010 1011 1016 1015 1011 1012 1017 1016 1012 1013 1018 1017 1013 1014 1019 1018 1015 1016 1021 1020 1016 1017 1022 1021 1017 1018 1023 1022 1018 1019 1024 1023 1025 1026 1031 1030 1026 1027 1032 1031 1027 1028 1033 1032 1028 1029 1034 1033 1030 1031 1036 1035 1031 1032 1037 1036 1032 1033 1038 1037 1033 1034 1039 1038 1035 1036 1041 1040 1036 1037 1042 1041 1037 1038 1043 1042 1038 1039 1044 1043 1040 1041 1046 1045 1041 1042 1047 1046 1042 1043 1048 1047 1043 1044 1049 1048 1050 1051 1056 1055 1051 1052 1057 1056 1052 1053 1058 1057 1053 1054 1059 1058 1055 1056 1061 1060 1056 1057 1062 1061 1057 1058 1063 1062 1058 1059 1064 1063 1060 1061 1066 1065 1061 1062 1067 1066 1062 1063 1068 1067 1063 1064 1069 1068 1065 1066 1071 1070 1066 1067 1072 1071 1067 1068 1073 1072 1068 1069 1074 1073 1075 1076 1081 1080 1076 1077 1082 1081 1077 1078 1083 1082 1078 1079 1084 1083 1080 1081 1086 1085 1081 1082 1087 1086 1082 1083 1088 1087 1083 1084 1089 1088 1085 1086 1091 1090 1086 1087 1092 1091 1087 1088 1093 1092 1088 1089 1094 1093 1090 1091 1096 1095 1091 1092 1097 1096 1092 1093 1098 1097 1093 1094 1099 1098 1100 1101 1106 1105 1101 1102 1107 1106 1102 1103 1108 1107 1103 1104 1109 1108 1105 1106 1111 1110 1106 1107 1112 1111 1107 1108 1113 1112 1108 1109 1114 1113 1110 1111 1116 1115 1111 1112 1117 1116 1112 1113 1118 1117 1113 1114 1119 1118 1115 1116 1121 1120 1116 1117 1122 1121 1117 1118 1123 1122 1118 1119 1124 1123 1125 1126 1131 1130 1126 1127 1132 1131 1127 1128 1133 1132 1128 1129 1134 1133 1130 1131 1136 1135 1131 1132 1137 1136 1132 1133 1138 1137 1133 1134 1139 1138 1135 1136 1141 1140 1136 1137 1142 1141 1137 1138 1143 1142 1138 1139 1144 1143 1140 1141 1146 1145 1141 1142 1147 1146 1142 1143 1148 1147 1143 1144 1149 1148 1150 1151 1156 1155 1151 1152 1157 1156 1152 1153 1158 1157 1153 1154 1159 1158 1155 1156 1161 1160 1156 1157 1162 1161 1157 1158 1163 1162 1158 1159 1164 1163 1160 1161 1166 1165 1161 1162 1167 1166 1162 1163 1168 1167 1163 1164 1169 1168 1165 1166 1171 1170 1166 1167 1172 1171 1167 1168 1173 1172 1168 1169 1174 1173 1175 1176 1181 1180 1176 1177 1182 1181 1177 1178 1183 1182 1178 1179 1184 1183 1180 1181 1186 1185 1181 1182 1187 1186 1182 1183 1188 1187 1183 1184 1189 1188 1185 1186 1191 1190 1186 1187 1192 1191 1187 1188 1193 1192 1188 1189 1194 1193 1190 1191 1196 1195 1191 1192 1197 1196 1192 1193 1198 1197 1193 1194 1199 1198 1200 1201 1206 1205 1201 1202 1207 1206 1202 1203 1208 1207 1203 1204 1209 1208 1205 1206 1211 1210 1206 1207 1212 1211 1207 1208 1213 1212 1208 1209 1214 1213 1210 1211 1216 1215 1211 1212 1217 1216 1212 1213 1218 1217 1213 1214 1219 1218 1215 1216 1221 1220 1216 1217 1222 1221 1217 1218 1223 1222 1218 1219 1224 1223 1225 1226 1231 1230 1226 1227 1232 1231 1227 1228 1233 1232 1228 1229 1234 1233 1230 1231 1236 1235 1231 1232 1237 1236 1232 1233 1238 1237 1233 1234 1239 1238 1235 1236 1241 1240 1236 1237 1242 1241 1237 1238 1243 1242 1238 1239 1244 1243 1240 1241 1246 1245 1241 1242 1247 1246 1242 1243 1248 1247 1243 1244 1249 1248 1250 1251 1256 1255 1251 1252 1257 1256 1252 1253 1258 1257 1253 1254 1259 1258 1255 1256 1261 1260 1256 1257 1262 1261 1257 1258 1263 1262 1258 1259 1264 1263 1260 1261 1266 1265 1261 1262 1267 1266 1262 1263 1268 1267 1263 1264 1269 1268 1265 1266 1271 1270 1266 1267 1272 1271 1267 1268 1273 1272 1268 1269 1274 1273 1275 1276 1281 1280 1276 1277 1282 1281 1277 1278 1283 1282 1278 1279 1284 1283 1280 1281 1286 1285 1281 1282 1287 1286 1282 1283 1288 1287 1283 1284 1289 1288 1285 1286 1291 1290 1286 1287 1292 1291 1287 1288 1293 1292 1288 1289 1294 1293 1290 1291 1296 1295 1291 1292 1297 1296 1292 1293 1298 1297 1293 1294 1299 1298 1300 1301 1306 1305 1301 1302 1307 1306 1302 1303 1308 1307 1303 1304 1309 1308 1305 1306 1311 1310 1306 1307 1312 1311 1307 1308 1313 1312 1308 1309 1314 1313 1310 1311 1316 1315 1311 1312 1317 1316 1312 1313 1318 1317 1313 1314 1319 1318 1315 1316 1321 1320 1316 1317 1322 1321 1317 1318 1323 1322 1318 1319 1324 1323 1325 1326 1331 1330 1326 1327 1332 1331 1327 1328 1333 1332 1328 1329 1334 1333 1330 1331 1336 1335 1331 1332 1337 1336 1332 1333 1338 1337 1333 1334 1339 1338 1335 1336 1341 1340 1336 1337 1342 1341 1337 1338 1343 1342 1338 1339 1344 1343 1340 1341 1346 1345 1341 1342 1347 1346 1342 1343 1348 1347 1343 1344 1349 1348 1350 1351 1356 1355 1351 1352 1357 1356 1352 1353 1358 1357 1353 1354 1359 1358 1355 1356 1361 1360 1356 1357 1362 1361 1357 1358 1363 1362 1358 1359 1364 1363 1360 1361 1366 1365 1361 1362 1367 1366 1362 1363 1368 1367 1363 1364 1369 1368 1365 1366 1371 1370 1366 1367 1372 1371 1367 1368 1373 1372 1368 1369 1374 1373 1375 1376 1381 1380 1376 1377 1382 1381 1377 1378 1383 1382 1378 1379 1384 1383 1380 1381 1386 1385 1381 1382 1387 1386 1382 1383 1388 1387 1383 1384 1389 1388 1385 1386 1391 1390 1386 1387 1392 1391 1387 1388 1393 1392 1388 1389 1394 1393 1390 1391 1396 1395 1391 1392 1397 1396 1392 1393 1398 1397 1393 1394 1399 1398 1400 1401 1406 1405 1401 1402 1407 1406 1402 1403 1408 1407 1403 1404 1409 1408 1405 1406 1411 1410 1406 1407 1412 1411 1407 1408 1413 1412 1408 1409 1414 1413 1410 1411 1416 1415 1411 1412 1417 1416 1412 1413 1418 1417 1413 1414 1419 1418 1415 1416 1421 1420 1416 1417 1422 1421 1417 1418 1423 1422 1418 1419 1424 1423 1425 1426 1431 1430 1426 1427 1432 1431 1427 1428 1433 1432 1428 1429 1434 1433 1430 1431 1436 1435 1431 1432 1437 1436 1432 1433 1438 1437 1433 1434 1439 1438 1435 1436 1441 1440 1436 1437 1442 1441 1437 1438 1443 1442 1438 1439 1444 1443 1440 1441 1446 1445 1441 1442 1447 1446 1442 1443 1448 1447 1443 1444 1449 1448 1450 1451 1456 1455 1451 1452 1457 1456 1452 1453 1458 1457 1453 1454 1459 1458 1455 1456 1461 1460 1456 1457 1462 1461 1457 1458 1463 1462 1458 1459 1464 1463 1460 1461 1466 1465 1461 1462 1467 1466 1462 1463 1468 1467 1463 1464 1469 1468 1465 1466 1471 1470 1466 1467 1472 1471 1467 1468 1473 1472 1468 1469 1474 1473 1475 1476 1481 1480 1476 1477 1482 1481 1477 1478 1483 1482 1478 1479 1484 1483 1480 1481 1486 1485 1481 1482 1487 1486 1482 1483 1488 1487 1483 1484 1489 1488 1485 1486 1491 1490 1486 1487 1492 1491 1487 1488 1493 1492 1488 1489 1494 1493 1490 1491 1496 1495 1491 1492 1497 1496 1492 1493 1498 1497 1493 1494 1499 1498 1500 1501 1506 1505 1501 1502 1507 1506 1502 1503 1508 1507 1503 1504 1509 1508 1505 1506 1511 1510 1506 1507 1512 1511 1507 1508 1513 1512 1508 1509 1514 1513 1510 1511 1516 1515 1511 1512 1517 1516 1512 1513 1518 1517 1513 1514 1519 1518 1515 1516 1521 1520 1516 1517 1522 1521 1517 1518 1523 1522 1518 1519 1524 1523 1525 1526 1531 1530 1526 1527 1532 1531 1527 1528 1533 1532 1528 1529 1534 1533 1530 1531 1536 1535 1531 1532 1537 1536 1532 1533 1538 1537 1533 1534 1539 1538 1535 1536 1541 1540 1536 1537 1542 1541 1537 1538 1543 1542 1538 1539 1544 1543 1540 1541 1546 1545 1541 1542 1547 1546 1542 1543 1548 1547 1543 1544 1549 1548 1550 1551 1556 1555 1551 1552 1557 1556 1552 1553 1558 1557 1553 1554 1559 1558 1555 1556 1561 1560 1556 1557 1562 1561 1557 1558 1563 1562 1558 1559 1564 1563 1560 1561 1566 1565 1561 1562 1567 1566 1562 1563 1568 1567 1563 1564 1569 1568 1565 1566 1571 1570 1566 1567 1572 1571 1567 1568 1573 1572 1568 1569 1574 1573 1575 1576 1581 1580 1576 1577 1582 1581 1577 1578 1583 1582 1578 1579 1584 1583 1580 1581 1586 1585 1581 1582 1587 1586 1582 1583 1588 1587 1583 1584 1589 1588 1585 1586 1591 1590 1586 1587 1592 1591 1587 1588 1593 1592 1588 1589 1594 1593 1590 1591 1596 1595 1591 1592 1597 1596 1592 1593 1598 1597 1593 1594 1599 1598 1600 1601 1606 1605 1601 1602 1607 1606 1602 1603 1608 1607 1603 1604 1609 1608 1605 1606 1611 1610 1606 1607 1612 1611 1607 1608 1613 1612 1608 1609 1614 1613 1610 1611 1616 1615 1611 1612 1617 1616 1612 1613 1618 1617 1613 1614 1619 1618 1615 1616 1621 1620 1616 1617 1622 1621 1617 1618 1623 1622 1618 1619 1624 1623 1625 1626 1631 1630 1626 1627 1632 1631 1627 1628 1633 1632 1628 1629 1634 1633 1630 1631 1636 1635 1631 1632 1637 1636 1632 1633 1638 1637 1633 1634 1639 1638 1635 1636 1641 1640 1636 1637 1642 1641 1637 1638 1643 1642 1638 1639 1644 1643 1640 1641 1646 1645 1641 1642 1647 1646 1642 1643 1648 1647 1643 1644 1649 1648 1650 1651 1656 1655 1651 1652 1657 1656 1652 1653 1658 1657 1653 1654 1659 1658 1655 1656 1661 1660 1656 1657 1662 1661 1657 1658 1663 1662 1658 1659 1664 1663 1660 1661 1666 1665 1661 1662 1667 1666 1662 1663 1668 1667 1663 1664 1669 1668 1665 1666 1671 1670 1666 1667 1672 1671 1667 1668 1673 1672 1668 1669 1674 1673 1675 1676 1681 1680 1676 1677 1682 1681 1677 1678 1683 1682 1678 1679 1684 1683 1680 1681 1686 1685 1681 1682 1687 1686 1682 1683 1688 1687 1683 1684 1689 1688 1685 1686 1691 1690 1686 1687 1692 1691 1687 1688 1693 1692 1688 1689 1694 1693 1690 1691 1696 1695 1691 1692 1697 1696 1692 1693 1698 1697 1693 1694 1699 1698 1700 1701 1706 1705 1701 1702 1707 1706 1702 1703 1708 1707 1703 1704 1709 1708 1705 1706 1711 1710 1706 1707 1712 1711 1707 1708 1713 1712 1708 1709 1714 1713 1710 1711 1716 1715 1711 1712 1717 1716 1712 1713 1718 1717 1713 1714 1719 1718 1715 1716 1721 1720 1716 1717 1722 1721 1717 1718 1723 1722 1718 1719 1724 1723 1725 1726 1731 1730 1726 1727 1732 1731 1727 1728 1733 1732 1728 1729 1734 1733 1730 1731 1736 1735 1731 1732 1737 1736 1732 1733 1738 1737 1733 1734 1739 1738 1735 1736 1741 1740 1736 1737 1742 1741 1737 1738 1743 1742 1738 1739 1744 1743 1740 1741 1746 1745 1741 1742 1747 1746 1742 1743 1748 1747 1743 1744 1749 1748 1750 1751 1756 1755 1751 1752 1757 1756 1752 1753 1758 1757 1753 1754 1759 1758 1755 1756 1761 1760 1756 1757 1762 1761 1757 1758 1763 1762 1758 1759 1764 1763 1760 1761 1766 1765 1761 1762 1767 1766 1762 1763 1768 1767 1763 1764 1769 1768 1765 1766 1771 1770 1766 1767 1772 1771 1767 1768 1773 1772 1768 1769 1774 1773 1775 1776 1781 1780 1776 1777 1782 1781 1777 1778 1783 1782 1778 1779 1784 1783 1780 1781 1786 1785 1781 1782 1787 1786 1782 1783 1788 1787 1783 1784 1789 1788 1785 1786 1791 1790 1786 1787 1792 1791 1787 1788 1793 1792 1788 1789 1794 1793 1790 1791 1796 1795 1791 1792 1797 1796 1792 1793 1798 1797 1793 1794 1799 1798 1800 1801 1806 1805 1801 1802 1807 1806 1802 1803 1808 1807 1803 1804 1809 1808 1805 1806 1811 1810 1806 1807 1812 1811 1807 1808 1813 1812 1808 1809 1814 1813 1810 1811 1816 1815 1811 1812 1817 1816 1812 1813 1818 1817 1813 1814 1819 1818 1815 1816 1821 1820 1816 1817 1822 1821 1817 1818 1823 1822 1818 1819 1824 1823 1825 1826 1831 1830 1826 1827 1832 1831 1827 1828 1833 1832 1828 1829 1834 1833 1830 1831 1836 1835 1831 1832 1837 1836 1832 1833 1838 1837 1833 1834 1839 1838 1835 1836 1841 1840 1836 1837 1842 1841 1837 1838 1843 1842 1838 1839 1844 1843 1840 1841 1846 1845 1841 1842 1847 1846 1842 1843 1848 1847 1843 1844 1849 1848 1850 1851 1856 1855 1851 1852 1857 1856 1852 1853 1858 1857 1853 1854 1859 1858 1855 1856 1861 1860 1856 1857 1862 1861 1857 1858 1863 1862 1858 1859 1864 1863 1860 1861 1866 1865 1861 1862 1867 1866 1862 1863 1868 1867 1863 1864 1869 1868 1865 1866 1871 1870 1866 1867 1872 1871 1867 1868 1873 1872 1868 1869 1874 1873 1875 1876 1881 1880 1876 1877 1882 1881 1877 1878 1883 1882 1878 1879 1884 1883 1880 1881 1886 1885 1881 1882 1887 1886 1882 1883 1888 1887 1883 1884 1889 1888 1885 1886 1891 1890 1886 1887 1892 1891 1887 1888 1893 1892 1888 1889 1894 1893 1890 1891 1896 1895 1891 1892 1897 1896 1892 1893 1898 1897 1893 1894 1899 1898 1900 1901 1906 1905 1901 1902 1907 1906 1902 1903 1908 1907 1903 1904 1909 1908 1905 1906 1911 1910 1906 1907 1912 1911 1907 1908 1913 1912 1908 1909 1914 1913 1910 1911 1916 1915 1911 1912 1917 1916 1912 1913 1918 1917 1913 1914 1919 1918 1915 1916 1921 1920 1916 1917 1922 1921 1917 1918 1923 1922 1918 1919 1924 1923 1925 1926 1931 1930 1926 1927 1932 1931 1927 1928 1933 1932 1928 1929 1934 1933 1930 1931 1936 1935 1931 1932 1937 1936 1932 1933 1938 1937 1933 1934 1939 1938 1935 1936 1941 1940 1936 1937 1942 1941 1937 1938 1943 1942 1938 1939 1944 1943 1940 1941 1946 1945 1941 1942 1947 1946 1942 1943 1948 1947 1943 1944 1949 1948 1950 1951 1956 1955 1951 1952 1957 1956 1952 1953 1958 1957 1953 1954 1959 1958 1955 1956 1961 1960 1956 1957 1962 1961 1957 1958 1963 1962 1958 1959 1964 1963 1960 1961 1966 1965 1961 1962 1967 1966 1962 1963 1968 1967 1963 1964 1969 1968 1965 1966 1971 1970 1966 1967 1972 1971 1967 1968 1973 1972 1968 1969 1974 1973 1975 1976 1981 1980 1976 1977 1982 1981 1977 1978 1983 1982 1978 1979 1984 1983 1980 1981 1986 1985 1981 1982 1987 1986 1982 1983 1988 1987 1983 1984 1989 1988 1985 1986 1991 1990 1986 1987 1992 1991 1987 1988 1993 1992 1988 1989 1994 1993 1990 1991 1996 1995 1991 1992 1997 1996 1992 1993 1998 1997 1993 1994 1999 1998 2000 2001 2006 2005 2001 2002 2007 2006 2002 2003 2008 2007 2003 2004 2009 2008 2005 2006 2011 2010 2006 2007 2012 2011 2007 2008 2013 2012 2008 2009 2014 2013 2010 2011 2016 2015 2011 2012 2017 2016 2012 2013 2018 2017 2013 2014 2019 2018 2015 2016 2021 2020 2016 2017 2022 2021 2017 2018 2023 2022 2018 2019 2024 2023 2025 2026 2031 2030 2026 2027 2032 2031 2027 2028 2033 2032 2028 2029 2034 2033 2030 2031 2036 2035 2031 2032 2037 2036 2032 2033 2038 2037 2033 2034 2039 2038 2035 2036 2041 2040 2036 2037 2042 2041 2037 2038 2043 2042 2038 2039 2044 2043 2040 2041 2046 2045 2041 2042 2047 2046 2042 2043 2048 2047 2043 2044 2049 2048 2050 2051 2056 2055 2051 2052 2057 2056 2052 2053 2058 2057 2053 2054 2059 2058 2055 2056 2061 2060 2056 2057 2062 2061 2057 2058 2063 2062 2058 2059 2064 2063 2060 2061 2066 2065 2061 2062 2067 2066 2062 2063 2068 2067 2063 2064 2069 2068 2065 2066 2071 2070 2066 2067 2072 2071 2067 2068 2073 2072 2068 2069 2074 2073 2075 2076 2081 2080 2076 2077 2082 2081 2077 2078 2083 2082 2078 2079 2084 2083 2080 2081 2086 2085 2081 2082 2087 2086 2082 2083 2088 2087 2083 2084 2089 2088 2085 2086 2091 2090 2086 2087 2092 2091 2087 2088 2093 2092 2088 2089 2094 2093 2090 2091 2096 2095 2091 2092 2097 2096 2092 2093 2098 2097 2093 2094 2099 2098 2100 2101 2106 2105 2101 2102 2107 2106 2102 2103 2108 2107 2103 2104 2109 2108 2105 2106 2111 2110 2106 2107 2112 2111 2107 2108 2113 2112 2108 2109 2114 2113 2110 2111 2116 2115 2111 2112 2117 2116 2112 2113 2118 2117 2113 2114 2119 2118 2115 2116 2121 2120 2116 2117 2122 2121 2117 2118 2123 2122 2118 2119 2124 2123 2125 2126 2131 2130 2126 2127 2132 2131 2127 2128 2133 2132 2128 2129 2134 2133 2130 2131 2136 2135 2131 2132 2137 2136 2132 2133 2138 2137 2133 2134 2139 2138 2135 2136 2141 2140 2136 2137 2142 2141 2137 2138 2143 2142 2138 2139 2144 2143 2140 2141 2146 2145 2141 2142 2147 2146 2142 2143 2148 2147 2143 2144 2149 2148 2150 2151 2156 2155 2151 2152 2157 2156 2152 2153 2158 2157 2153 2154 2159 2158 2155 2156 2161 2160 2156 2157 2162 2161 2157 2158 2163 2162 2158 2159 2164 2163 2160 2161 2166 2165 2161 2162 2167 2166 2162 2163 2168 2167 2163 2164 2169 2168 2165 2166 2171 2170 2166 2167 2172 2171 2167 2168 2173 2172 2168 2169 2174 2173 2175 2176 2181 2180 2176 2177 2182 2181 2177 2178 2183 2182 2178 2179 2184 2183 2180 2181 2186 2185 2181 2182 2187 2186 2182 2183 2188 2187 2183 2184 2189 2188 2185 2186 2191 2190 2186 2187 2192 2191 2187 2188 2193 2192 2188 2189 2194 2193 2190 2191 2196 2195 2191 2192 2197 2196 2192 2193 2198 2197 2193 2194 2199 2198 2200 2201 2206 2205 2201 2202 2207 2206 2202 2203 2208 2207 2203 2204 2209 2208 2205 2206 2211 2210 2206 2207 2212 2211 2207 2208 2213 2212 2208 2209 2214 2213 2210 2211 2216 2215 2211 2212 2217 2216 2212 2213 2218 2217 2213 2214 2219 2218 2215 2216 2221 2220 2216 2217 2222 2221 2217 2218 2223 2222 2218 2219 2224 2223 2225 2226 2231 2230 2226 2227 2232 2231 2227 2228 2233 2232 2228 2229 2234 2233 2230 2231 2236 2235 2231 2232 2237 2236 2232 2233 2238 2237 2233 2234 2239 2238 2235 2236 2241 2240 2236 2237 2242 2241 2237 2238 2243 2242 2238 2239 2244 2243 2240 2241 2246 2245 2241 2242 2247 2246 2242 2243 2248 2247 2243 2244 2249 2248 2250 2251 2256 2255 2251 2252 2257 2256 2252 2253 2258 2257 2253 2254 2259 2258 2255 2256 2261 2260 2256 2257 2262 2261 2257 2258 2263 2262 2258 2259 2264 2263 2260 2261 2266 2265 2261 2262 2267 2266 2262 2263 2268 2267 2263 2264 2269 2268 2265 2266 2271 2270 2266 2267 2272 2271 2267 2268 2273 2272 2268 2269 2274 2273 2275 2276 2281 2280 2276 2277 2282 2281 2277 2278 2283 2282 2278 2279 2284 2283 2280 2281 2286 2285 2281 2282 2287 2286 2282 2283 2288 2287 2283 2284 2289 2288 2285 2286 2291 2290 2286 2287 2292 2291 2287 2288 2293 2292 2288 2289 2294 2293 2290 2291 2296 2295 2291 2292 2297 2296 2292 2293 2298 2297 2293 2294 2299 2298 2300 2301 2306 2305 2301 2302 2307 2306 2302 2303 2308 2307 2303 2304 2309 2308 2305 2306 2311 2310 2306 2307 2312 2311 2307 2308 2313 2312 2308 2309 2314 2313 2310 2311 2316 2315 2311 2312 2317 2316 2312 2313 2318 2317 2313 2314 2319 2318 2315 2316 2321 2320 2316 2317 2322 2321 2317 2318 2323 2322 2318 2319 2324 2323 2325 2326 2331 2330 2326 2327 2332 2331 2327 2328 2333 2332 2328 2329 2334 2333 2330 2331 2336 2335 2331 2332 2337 2336 2332 2333 2338 2337 2333 2334 2339 2338 2335 2336 2341 2340 2336 2337 2342 2341 2337 2338 2343 2342 2338 2339 2344 2343 2340 2341 2346 2345 2341 2342 2347 2346 2342 2343 2348 2347 2343 2344 2349 2348 2350 2351 2356 2355 2351 2352 2357 2356 2352 2353 2358 2357 2353 2354 2359 2358 2355 2356 2361 2360 2356 2357 2362 2361 2357 2358 2363 2362 2358 2359 2364 2363 2360 2361 2366 2365 2361 2362 2367 2366 2362 2363 2368 2367 2363 2364 2369 2368 2365 2366 2371 2370 2366 2367 2372 2371 2367 2368 2373 2372 2368 2369 2374 2373 2375 2376 2381 2380 2376 2377 2382 2381 2377 2378 2383 2382 2378 2379 2384 2383 2380 2381 2386 2385 2381 2382 2387 2386 2382 2383 2388 2387 2383 2384 2389 2388 2385 2386 2391 2390 2386 2387 2392 2391 2387 2388 2393 2392 2388 2389 2394 2393 2390 2391 2396 2395 2391 2392 2397 2396 2392 2393 2398 2397 2393 2394 2399 2398 2400 2401 2406 2405 2401 2402 2407 2406 2402 2403 2408 2407 2403 2404 2409 2408 2405 2406 2411 2410 2406 2407 2412 2411 2407 2408 2413 2412 2408 2409 2414 2413 2410 2411 2416 2415 2411 2412 2417 2416 2412 2413 2418 2417 2413 2414 2419 2418 2415 2416 2421 2420 2416 2417 2422 2421 2417 2418 2423 2422 2418 2419 2424 2423 2425 2426 2431 2430 2426 2427 2432 2431 2427 2428 2433 2432 2428 2429 2434 2433 2430 2431 2436 2435 2431 2432 2437 2436 2432 2433 2438 2437 2433 2434 2439 2438 2435 2436 2441 2440 2436 2437 2442 2441 2437 2438 2443 2442 2438 2439 2444 2443 2440 2441 2446 2445 2441 2442 2447 2446 2442 2443 2448 2447 2443 2444 2449 2448 2450 2451 2456 2455 2451 2452 2457 2456 2452 2453 2458 2457 2453 2454 2459 2458 2455 2456 2461 2460 2456 2457 2462 2461 2457 2458 2463 2462 2458 2459 2464 2463 2460 2461 2466 2465 2461 2462 2467 2466 2462 2463 2468 2467 2463 2464 2469 2468 2465 2466 2471 2470 2466 2467 2472 2471 2467 2468 2473 2472 2468 2469 2474 2473 2475 2476 2481 2480 2476 2477 2482 2481 2477 2478 2483 2482 2478 2479 2484 2483 2480 2481 2486 2485 2481 2482 2487 2486 2482 2483 2488 2487 2483 2484 2489 2488 2485 2486 2491 2490 2486 2487 2492 2491 2487 2488 2493 2492 2488 2489 2494 2493 2490 2491 2496 2495 2491 2492 2497 2496 2492 2493 2498 2497 2493 2494 2499 2498 2500 2501 2506 2505 2501 2502 2507 2506 2502 2503 2508 2507 2503 2504 2509 2508 2505 2506 2511 2510 2506 2507 2512 2511 2507 2508 2513 2512 2508 2509 2514 2513 2510 2511 2516 2515 2511 2512 2517 2516 2512 2513 2518 2517 2513 2514 2519 2518 2515 2516 2521 2520 2516 2517 2522 2521 2517 2518 2523 2522 2518 2519 2524 2523 2525 2526 2531 2530 2526 2527 2532 2531 2527 2528 2533 2532 2528 2529 2534 2533 2530 2531 2536 2535 2531 2532 2537 2536 2532 2533 2538 2537 2533 2534 2539 2538 2535 2536 2541 2540 2536 2537 2542 2541 2537 2538 2543 2542 2538 2539 2544 2543 2540 2541 2546 2545 2541 2542 2547 2546 2542 2543 2548 2547 2543 2544 2549 2548 2550 2551 2556 2555 2551 2552 2557 2556 2552 2553 2558 2557 2553 2554 2559 2558 2555 2556 2561 2560 2556 2557 2562 2561 2557 2558 2563 2562 2558 2559 2564 2563 2560 2561 2566 2565 2561 2562 2567 2566 2562 2563 2568 2567 2563 2564 2569 2568 2565 2566 2571 2570 2566 2567 2572 2571 2567 2568 2573 2572 2568 2569 2574 2573 2575 2576 2581 2580 2576 2577 2582 2581 2577 2578 2583 2582 2578 2579 2584 2583 2580 2581 2586 2585 2581 2582 2587 2586 2582 2583 2588 2587 2583 2584 2589 2588 2585 2586 2591 2590 2586 2587 2592 2591 2587 2588 2593 2592 2588 2589 2594 2593 2590 2591 2596 2595 2591 2592 2597 2596 2592 2593 2598 2597 2593 2594 2599 2598 2600 2601 2606 2605 2601 2602 2607 2606 2602 2603 2608 2607 2603 2604 2609 2608 2605 2606 2611 2610 2606 2607 2612 2611 2607 2608 2613 2612 2608 2609 2614 2613 2610 2611 2616 2615 2611 2612 2617 2616 2612 2613 2618 2617 2613 2614 2619 2618 2615 2616 2621 2620 2616 2617 2622 2621 2617 2618 2623 2622 2618 2619 2624 2623 2625 2626 2631 2630 2626 2627 2632 2631 2627 2628 2633 2632 2628 2629 2634 2633 2630 2631 2636 2635 2631 2632 2637 2636 2632 2633 2638 2637 2633 2634 2639 2638 2635 2636 2641 2640 2636 2637 2642 2641 2637 2638 2643 2642 2638 2639 2644 2643 2640 2641 2646 2645 2641 2642 2647 2646 2642 2643 2648 2647 2643 2644 2649 2648 2650 2651 2656 2655 2651 2652 2657 2656 2652 2653 2658 2657 2653 2654 2659 2658 2655 2656 2661 2660 2656 2657 2662 2661 2657 2658 2663 2662 2658 2659 2664 2663 2660 2661 2666 2665 2661 2662 2667 2666 2662 2663 2668 2667 2663 2664 2669 2668 2665 2666 2671 2670 2666 2667 2672 2671 2667 2668 2673 2672 2668 2669 2674 2673 2675 2676 2681 2680 2676 2677 2682 2681 2677 2678 2683 2682 2678 2679 2684 2683 2680 2681 2686 2685 2681 2682 2687 2686 2682 2683 2688 2687 2683 2684 2689 2688 2685 2686 2691 2690 2686 2687 2692 2691 2687 2688 2693 2692 2688 2689 2694 2693 2690 2691 2696 2695 2691 2692 2697 2696 2692 2693 2698 2697 2693 2694 2699 2698 2700 2701 2706 2705 2701 2702 2707 2706 2702 2703 2708 2707 2703 2704 2709 2708 2705 2706 2711 2710 2706 2707 2712 2711 2707 2708 2713 2712 2708 2709 2714 2713 2710 2711 2716 2715 2711 2712 2717 2716 2712 2713 2718 2717 2713 2714 2719 2718 2715 2716 2721 2720 2716 2717 2722 2721 2717 2718 2723 2722 2718 2719 2724 2723 2725 2726 2731 2730 2726 2727 2732 2731 2727 2728 2733 2732 2728 2729 2734 2733 2730 2731 2736 2735 2731 2732 2737 2736 2732 2733 2738 2737 2733 2734 2739 2738 2735 2736 2741 2740 2736 2737 2742 2741 2737 2738 2743 2742 2738 2739 2744 2743 2740 2741 2746 2745 2741 2742 2747 2746 2742 2743 2748 2747 2743 2744 2749 2748 2750 2751 2756 2755 2751 2752 2757 2756 2752 2753 2758 2757 2753 2754 2759 2758 2755 2756 2761 2760 2756 2757 2762 2761 2757 2758 2763 2762 2758 2759 2764 2763 2760 2761 2766 2765 2761 2762 2767 2766 2762 2763 2768 2767 2763 2764 2769 2768 2765 2766 2771 2770 2766 2767 2772 2771 2767 2768 2773 2772 2768 2769 2774 2773 2775 2776 2781 2780 2776 2777 2782 2781 2777 2778 2783 2782 2778 2779 2784 2783 2780 2781 2786 2785 2781 2782 2787 2786 2782 2783 2788 2787 2783 2784 2789 2788 2785 2786 2791 2790 2786 2787 2792 2791 2787 2788 2793 2792 2788 2789 2794 2793 2790 2791 2796 2795 2791 2792 2797 2796 2792 2793 2798 2797 2793 2794 2799 2798 
 </DataArray> 
<DataArray type="Int32" Name="offsets"> 
4 8 12 16 20 24 28 32 36 40 44 48 52 56 60 64 68 72 76 80 84 88 92 96 100 104 108 112 116 120 124 128 132 136 140 144 148 152 156 160 164 168 172 176 180 184 188 192 196 200 204 208 212 216 220 224 228 232 236 240 244 248 252 256 260 264 268 272 276 280 284 288 292 296 300 304 308 312 316 320 324 328 332 336 340 344 348 352 356 360 364 368 372 376 380 384 388 392 396 400 404 408 412 416 420 424 428 432 436 440 444 448 452 456 460 464 468 472 476 480 484 488 492 496 500 504 508 512 516 520 524 528 532 536 540 544 548 552 556 560 564 568 572 576 580 584 588 592 596 600 604 608 612 616 620 624 628 632 636 640 644 648 652 656 660 664 668 672 676 680 684 688 692 696 700 704 708 712 716 720 724 728 732 736 740 744 748 752 756 760 764 768 772 776 780 784 788 792 796 800 804 808 812 816 820 824 828 832 836 840 844 848 852 856 860 864 868 872 876 880 884 888 892 896 900 904 908 912 916 920 924 928 932 936 940 944 948 952 956 960 964 968 972 976 980 984 988 992 996 1000 1004 1008 1012 1016 1020 1024 1028 1032 1036 1040 1044 1048 1052 1056 1060 1064 1068 1072 1076 1080 1084 1088 1092 1096 1100 1104 1108 1112 1116 1120 1124 1128 1132 1136 1140 1144 1148 1152 1156 1160 1164 1168 1172 1176 1180 1184 1188 1192 1196 1200 1204 1208 1212 1216 1220 1224 1228 1232 1236 1240 1244 1248 1252 1256 1260 1264 1268 1272 1276 1280 1284 1288 1292 1296 1300 1304 1308 1312 1316 1320 1324 1328 1332 1336 1340 1344 1348 1352 1356 1360 1364 1368 1372 1376 1380 1384 1388 1392 1396 1400 1404 1408 1412 1416 1420 1424 1428 1432 1436 1440 1444 1448 1452 1456 1460 1464 1468 1472 1476 1480 1484 1488 1492 1496 1500 1504 1508 1512 1516 1520 1524 1528 1532 1536 1540 1544 1548 1552 1556 1560 1564 1568 1572 1576 1580 1584 1588 1592 1596 1600 1604 1608 1612 1616 1620 1624 1628 1632 1636 1640 1644 1648 1652 1656 1660 1664 1668 1672 1676 1680 1684 1688 1692 1696 1700 1704 1708 1712 1716 1720 1724 1728 1732 1736 1740 1744 1748 1752 1756 1760 1764 1768 1772 1776 1780 1784 1788 1792 1796 1800 1804 1808 1812 1816 1820 1824 1828 1832 1836 1840 1844 1848 1852 1856 1860 1864 1868 1872 1876 1880 1884 1888 1892 1896 1900 1904 1908 1912 1916 1920 1924 1928 1932 1936 1940 1944 1948 1952 1956 1960 1964 1968 1972 1976 1980 1984 1988 1992 1996 2000 2004 2008 2012 2016 2020 2024 2028 2032 2036 2040 2044 2048 2052 2056 2060 2064 2068 2072 2076 2080 2084 2088 2092 2096 2100 2104 2108 2112 2116 2120 2124 2128 2132 2136 2140 2144 2148 2152 2156 2160 2164 2168 2172 2176 2180 2184 2188 2192 2196 2200 2204 2208 2212 2216 2220 2224 2228 2232 2236 2240 2244 2248 2252 2256 2260 2264 2268 2272 2276 2280 2284 2288 2292 2296 2300 2304 2308 2312 2316 2320 2324 2328 2332 2336 2340 2344 2348 2352 2356 2360 2364 2368 2372 2376 2380 2384 2388 2392 2396 2400 2404 2408 2412 2416 2420 2424 2428 2432 2436 2440 2444 2448 2452 2456 2460 2464 2468 2472 2476 2480 2484 2488 2492 2496 2500 2504 2508 2512 2516 2520 2524 2528 2532 2536 2540 2544 2548 2552 2556 2560 2564 2568 2572 2576 2580 2584 2588 2592 2596 2600 2604 2608 2612 2616 2620 2624 2628 2632 2636 2640 2644 2648 2652 2656 2660 2664 2668 2672 2676 2680 2684 2688 2692 2696 2700 2704 2708 2712 2716 2720 2724 2728 2732 2736 2740 2744 2748 2752 2756 2760 2764 2768 2772 2776 2780 2784 2788 2792 2796 2800 2804 2808 2812 2816 2820 2824 2828 2832 2836 2840 2844 2848 2852 2856 2860 2864 2868 2872 2876 2880 2884 2888 2892 2896 2900 2904 2908 2912 2916 2920 2924 2928 2932 2936 2940 2944 2948 2952 2956 2960 2964 2968 2972 2976 2980 2984 2988 2992 2996 3000 3004 3008 3012 3016 3020 3024 3028 3032 3036 3040 3044 3048 3052 3056 3060 3064 3068 3072 3076 3080 3084 3088 3092 3096 3100 3104 3108 3112 3116 3120 3124 3128 3132 3136 3140 3144 3148 3152 3156 3160 3164 3168 3172 3176 3180 3184 3188 3192 3196 3200 3204 3208 3212 3216 3220 3224 3228 3232 3236 3240 3244 3248 3252 3256 3260 3264 3268 3272 3276 3280 3284 3288 3292 3296 3300 3304 3308 3312 3316 3320 3324 3328 3332 3336 3340 3344 3348 3352 3356 3360 3364 3368 3372 3376 3380 3384 3388 3392 3396 3400 3404 3408 3412 3416 3420 3424 3428 3432 3436 3440 3444 3448 3452 3456 3460 3464 3468 3472 3476 3480 3484 3488 3492 3496 3500 3504 3508 3512 3516 3520 3524 3528 3532 3536 3540 3544 3548 3552 3556 3560 3564 3568 3572 3576 3580 3584 3588 3592 3596 3600 3604 3608 3612 3616 3620 3624 3628 3632 3636 3640 3644 3648 3652 3656 3660 3664 3668 3672 3676 3680 3684 3688 3692 3696 3700 3704 3708 3712 3716 3720 3724 3728 3732 3736 3740 3744 3748 3752 3756 3760 3764 3768 3772 3776 3780 3784 3788 3792 3796 3800 3804 3808 3812 3816 3820 3824 3828 3832 3836 3840 3844 3848 3852 3856 3860 3864 3868 3872 3876 3880 3884 3888 3892 3896 3900 3904 3908 3912 3916 3920 3924 3928 3932 3936 3940 3944 3948 3952 3956 3960 3964 3968 3972 3976 3980 3984 3988 3992 3996 4000 4004 4008 4012 4016 4020 4024 4028 4032 4036 4040 4044 4048 4052 4056 4060 4064 4068 4072 4076 4080 4084 4088 4092 4096 4100 4104 4108 4112 4116 4120 4124 4128 4132 4136 4140 4144 4148 4152 4156 4160 4164 4168 4172 4176 4180 4184 4188 4192 4196 4200 4204 4208 4212 4216 4220 4224 4228 4232 4236 4240 4244 4248 4252 4256 4260 4264 4268 4272 4276 4280 4284 4288 4292 4296 4300 4304 4308 4312 4316 4320 4324 4328 4332 4336 4340 4344 4348 4352 4356 4360 4364 4368 4372 4376 4380 4384 4388 4392 4396 4400 4404 4408 4412 4416 4420 4424 4428 4432 4436 4440 4444 4448 4452 4456 4460 4464 4468 4472 4476 4480 4484 4488 4492 4496 4500 4504 4508 4512 4516 4520 4524 4528 4532 4536 4540 4544 4548 4552 4556 4560 4564 4568 4572 4576 4580 4584 4588 4592 4596 4600 4604 4608 4612 4616 4620 4624 4628 4632 4636 4640 4644 4648 4652 4656 4660 4664 4668 4672 4676 4680 4684 4688 4692 4696 4700 4704 4708 4712 4716 4720 4724 4728 4732 4736 4740 4744 4748 4752 4756 4760 4764 4768 4772 4776 4780 4784 4788 4792 4796 4800 4804 4808 4812 4816 4820 4824 4828 4832 4836 4840 4844 4848 4852 4856 4860 4864 4868 4872 4876 4880 4884 4888 4892 4896 4900 4904 4908 4912 4916 4920 4924 4928 4932 4936 4940 4944 4948 4952 4956 4960 4964 4968 4972 4976 4980 4984 4988 4992 4996 5000 5004 5008 5012 5016 5020 5024 5028 5032 5036 5040 5044 5048 5052 5056 5060 5064 5068 5072 5076 5080 5084 5088 5092 5096 5100 5104 5108 5112 5116 5120 5124 5128 5132 5136 5140 5144 5148 5152 5156 5160 5164 5168 5172 5176 5180 5184 5188 5192 5196 5200 5204 5208 5212 5216 5220 5224 5228 5232 5236 5240 5244 5248 5252 5256 5260 5264 5268 5272 5276 5280 5284 5288 5292 5296 5300 5304 5308 5312 5316 5320 5324 5328 5332 5336 5340 5344 5348 5352 5356 5360 5364 5368 5372 5376 5380 5384 5388 5392 5396 5400 5404 5408 5412 5416 5420 5424 5428 5432 5436 5440 5444 5448 5452 5456 5460 5464 5468 5472 5476 5480 5484 5488 5492 5496 5500 5504 5508 5512 5516 5520 5524 5528 5532 5536 5540 5544 5548 5552 5556 5560 5564 5568 5572 5576 5580 5584 5588 5592 5596 5600 5604 5608 5612 5616 5620 5624 5628 5632 5636 5640 5644 5648 5652 5656 5660 5664 5668 5672 5676 5680 5684 5688 5692 5696 5700 5704 5708 5712 5716 5720 5724 5728 5732 5736 5740 5744 5748 5752 5756 5760 5764 5768 5772 5776 5780 5784 5788 5792 5796 5800 5804 5808 5812 5816 5820 5824 5828 5832 5836 5840 5844 5848 5852 5856 5860 5864 5868 5872 5876 5880 5884 5888 5892 5896 5900 5904 5908 5912 5916 5920 5924 5928 5932 5936 5940 5944 5948 5952 5956 5960 5964 5968 5972 5976 5980 5984 5988 5992 5996 6000 6004 6008 6012 6016 6020 6024 6028 6032 6036 6040 6044 6048 6052 6056 6060 6064 6068 6072 6076 6080 6084 6088 6092 6096 6100 6104 6108 6112 6116 6120 6124 6128 6132 6136 6140 6144 6148 6152 6156 6160 6164 6168 6172 6176 6180 6184 6188 6192 6196 6200 6204 6208 6212 6216 6220 6224 6228 6232 6236 6240 6244 6248 6252 6256 6260 6264 6268 6272 6276 6280 6284 6288 6292 6296 6300 6304 6308 6312 6316 6320 6324 6328 6332 6336 6340 6344 6348 6352 6356 6360 6364 6368 6372 6376 6380 6384 6388 6392 6396 6400 6404 6408 6412 6416 6420 6424 6428 6432 6436 6440 6444 6448 6452 6456 6460 6464 6468 6472 6476 6480 6484 6488 6492 6496 6500 6504 6508 6512 6516 6520 6524 6528 6532 6536 6540 6544 6548 6552 6556 6560 6564 6568 6572 6576 6580 6584 6588 6592 6596 6600 6604 6608 6612 6616 6620 6624 6628 6632 6636 6640 6644 6648 6652 6656 6660 6664 6668 6672 6676 6680 6684 6688 6692 6696 6700 6704 6708 6712 6716 6720 6724 6728 6732 6736 6740 6744 6748 6752 6756 6760 6764 6768 6772 6776 6780 6784 6788 6792 6796 6800 6804 6808 6812 6816 6820 6824 6828 6832 6836 6840 6844 6848 6852 6856 6860 6864 6868 6872 6876 6880 6884 6888 6892 6896 6900 6904 6908 6912 6916 6920 6924 6928 6932 6936 6940 6944 6948 6952 6956 6960 6964 6968 6972 6976 6980 6984 6988 6992 6996 7000 7004 7008 7012 7016 7020 7024 7028 7032 7036 7040 7044 7048 7052 7056 7060 7064 7068 7072 7076 7080 7084 7088 7092 7096 7100 7104 7108 7112 7116 7120 7124 7128 7132 7136 7140 7144 7148 7152 7156 7160 7164 7168 
</DataArray> 
<DataArray type="Int32" Name="types"> 
9 9 9 9 9 9 9 9 9 9 9 9 9 9 9 9 9 9 9 9 9 9 9 9 9 9 9 9 9 9 9 9 9 9 9 9 9 9 9 9 9 9 9 9 9 9 9 9 9 9 9 9 9 9 9 9 9 9 9 9 9 9 9 9 9 9 9 9 9 9 9 9 9 9 9 9 9 9 9 9 9 9 9 9 9 9 9 9 9 9 9 9 9 9 9 9 9 9 9 9 9 9 9 9 9 9 9 9 9 9 9 9 9 9 9 9 9 9 9 9 9 9 9 9 9 9 9 9 9 9 9 9 9 9 9 9 9 9 9 9 9 9 9 9 9 9 9 9 9 9 9 9 9 9 9 9 9 9 9 9 9 9 9 9 9 9 9 9 9 9 9 9 9 9 9 9 9 9 9 9 9 9 9 9 9 9 9 9 9 9 9 9 9 9 9 9 9 9 9 9 9 9 9 9 9 9 9 9 9 9 9 9 9 9 9 9 9 9 9 9 9 9 9 9 9 9 9 9 9 9 9 9 9 9 9 9 9 9 9 9 9 9 9 9 9 9 9 9 9 9 9 9 9 9 9 9 9 9 9 9 9 9 9 9 9 9 9 9 9 9 9 9 9 9 9 9 9 9 9 9 9 9 9 9 9 9 9 9 9 9 9 9 9 9 9 9 9 9 9 9 9 9 9 9 9 9 9 9 9 9 9 9 9 9 9 9 9 9 9 9 9 9 9 9 9 9 9 9 9 9 9 9 9 9 9 9 9 9 9 9 9 9 9 9 9 9 9 9 9 9 9 9 9 9 9 9 9 9 9 9 9 9 9 9 9 9 9 9 9 9 9 9 9 9 9 9 9 9 9 9 9 9 9 9 9 9 9 9 9 9 9 9 9 9 9 9 9 9 9 9 9 9 9 9 9 9 9 9 9 9 9 9 9 9 9 9 9 9 9 9 9 9 9 9 9 9 9 9 9 9 9 9 9 9 9 9 9 9 9 9 9 9 9 9 9 9 9 9 9 9 9 9 9 9 9 9 9 9 9 9 9 9 9 9 9 9 9 9 9 9 9 9 9 9 9 9 9 9 9 9 9 9 9 9 9 9 9 9 9 9 9 9 9 9 9 9 9 9 9 9 9 9 9 9 9 9 9 9 9 9 9 9 9 9 9 9 9 9 9 9 9 9 9 9 9 9 9 9 9 9 9 9 9 9 9 9 9 9 9 9 9 9 9 9 9 9 9 9 9 9 9 9 9 9 9 9 9 9 9 9 9 9 9 9 9 9 9 9 9 9 9 9 9 9 9 9 9 9 9 9 9 9 9 9 9 9 9 9 9 9 9 9 9 9 9 9 9 9 9 9 9 9 9 9 9 9 9 9 9 9 9 9 9 9 9 9 9 9 9 9 9 9 9 9 9 9 9 9 9 9 9 9 9 9 9 9 9 9 9 9 9 9 9 9 9 9 9 9 9 9 9 9 9 9 9 9 9 9 9 9 9 9 9 9 9 9 9 9 9 9 9 9 9 9 9 9 9 9 9 9 9 9 9 9 9 9 9 9 9 9 9 9 9 9 9 9 9 9 9 9 9 9 9 9 9 9 9 9 9 9 9 9 9 9 9 9 9 9 9 9 9 9 9 9 9 9 9 9 9 9 9 9 9 9 9 9 9 9 9 9 9 9 9 9 9 9 9 9 9 9 9 9 9 9 9 9 9 9 9 9 9 9 9 9 9 9 9 9 9 9 9 9 9 9 9 9 9 9 9 9 9 9 9 9 9 9 9 9 9 9 9 9 9 9 9 9 9 9 9 9 9 9 9 9 9 9 9 9 9 9 9 9 9 9 9 9 9 9 9 9 9 9 9 9 9 9 9 9 9 9 9 9 9 9 9 9 9 9 9 9 9 9 9 9 9 9 9 9 9 9 9 9 9 9 9 9 9 9 9 9 9 9 9 9 9 9 9 9 9 9 9 9 9 9 9 9 9 9 9 9 9 9 9 9 9 9 9 9 9 9 9 9 9 9 9 9 9 9 9 9 9 9 9 9 9 9 9 9 9 9 9 9 9 9 9 9 9 9 9 9 9 9 9 9 9 9 9 9 9 9 9 9 9 9 9 9 9 9 9 9 9 9 9 9 9 9 9 9 9 9 9 9 9 9 9 9 9 9 9 9 9 9 9 9 9 9 9 9 9 9 9 9 9 9 9 9 9 9 9 9 9 9 9 9 9 9 9 9 9 9 9 9 9 9 9 9 9 9 9 9 9 9 9 9 9 9 9 9 9 9 9 9 9 9 9 9 9 9 9 9 9 9 9 9 9 9 9 9 9 9 9 9 9 9 9 9 9 9 9 9 9 9 9 9 9 9 9 9 9 9 9 9 9 9 9 9 9 9 9 9 9 9 9 9 9 9 9 9 9 9 9 9 9 9 9 9 9 9 9 9 9 9 9 9 9 9 9 9 9 9 9 9 9 9 9 9 9 9 9 9 9 9 9 9 9 9 9 9 9 9 9 9 9 9 9 9 9 9 9 9 9 9 9 9 9 9 9 9 9 9 9 9 9 9 9 9 9 9 9 9 9 9 9 9 9 9 9 9 9 9 9 9 9 9 9 9 9 9 9 9 9 9 9 9 9 9 9 9 9 9 9 9 9 9 9 9 9 9 9 9 9 9 9 9 9 9 9 9 9 9 9 9 9 9 9 9 9 9 9 9 9 9 9 9 9 9 9 9 9 9 9 9 9 9 9 9 9 9 9 9 9 9 9 9 9 9 9 9 9 9 9 9 9 9 9 9 9 9 9 9 9 9 9 9 9 9 9 9 9 9 9 9 9 9 9 9 9 9 9 9 9 9 9 9 9 9 9 9 9 9 9 9 9 9 9 9 9 9 9 9 9 9 9 9 9 9 9 9 9 9 9 9 9 9 9 9 9 9 9 9 9 9 9 9 9 9 9 9 9 9 9 9 9 9 9 9 9 9 9 9 9 9 9 9 9 9 9 9 9 9 9 9 9 9 9 9 9 9 9 9 9 9 9 9 9 9 9 9 9 9 9 9 9 9 9 9 9 9 9 9 9 9 9 9 9 9 9 9 9 9 9 9 9 9 9 9 9 9 9 9 9 9 9 9 9 9 9 9 9 9 9 9 9 9 9 9 9 9 9 9 9 9 9 9 9 9 9 9 9 9 9 9 9 9 9 9 9 9 9 9 9 9 9 9 9 9 9 9 9 9 9 9 9 9 9 9 9 9 9 9 9 9 9 9 9 9 9 9 9 9 9 9 9 9 9 9 9 9 9 9 9 9 9 9 9 9 9 9 9 9 9 9 9 9 9 9 9 9 9 9 9 9 9 9 9 9 9 9 9 9 9 9 9 9 9 9 9 9 9 9 9 9 9 9 9 9 9 9 9 9 9 9 9 9 9 9 9 9 9 9 9 9 9 9 9 9 9 9 9 9 9 9 9 9 9 9 9 9 9 9 9 9 9 9 9 9 9 9 9 9 9 9 9 9 9 9 9 9 9 9 9 9 9 9 9 9 9 9 9 9 9 9 9 9 9 9 9 9 9 9 9 9 9 9 9 9 9 9 9 9 9 9 9 9 9 9 9 9 9 9 9 9 9 9 9 9 9 9 9 9 9 9 9 9 9 9 9 9 9 9 9 9 9 9 9 9 9 9 9 9 9 9 9 9 9 9 9 9 9 9 9 9 9 9 9 9 9 9 9 9 9 9 9 9 9 9 9 9 9 9 9 9 9 9 9 9 9 9 9 9 9 9 9 9 9 9 9 9 9 9 9 9 9 9 9 9 9 9 9 9 9 9 9 9 9 9 9 9 9 9 9 9 9 9 9 9 9 9 9 9 9 9 9 9 9 9 9 9 9 9 9 9 9 9 9 9 9 9 9 9 9 9 9 9 9 9 9 9 9 9 9 9 9 9 9 9 9 9 9 9 9 9 9 9 9 9 9 9 9 9 9 9 9 9 9 9 9 9 9 9 9 9 9 9 9 9 9 9 9 9 9 9 9 9 9 9 9 9 9 9 9 9 
</DataArray>
</Cells> 
</Piece> 
</UnstructuredGrid> 
</VTKFile> 
